     Program PWSCF v.7.2 starts on 19Jun2023 at 19: 2:37

     Waiting for input...
     Reading input from standard input

     Current dimensions of program PWSCF are:
     Max number of different atomic species (ntypx) = 10
     Max number of k-points (npk) = 120000
     Max angular momentum in pseudopotentials (lmaxx) =  4
     file Sc.pz-spn-kjpaw_psl.1.0.0.UPF: wavefunction(s)  3S 3P 3D renormalized

     R & G space division:  proc/nbgrp/npool/nimage =       4
     Subspace diagonalization in iterative solution of the eigenvalue problem:
     a serial algorithm will be used

     Using Slab Decomposition

     bravais-lattice index     =            4
     lattice parameter (alat)  =       6.2531  a.u.
     unit-cell volume          =     337.5249 (a.u.)^3
     number of atoms/cell      =            2
     number of atomic types    =            1
     number of electrons       =        22.00
     number of Kohn-Sham states=           15
     kinetic-energy cutoff     =     120.0000  Ry
     charge density cutoff     =     480.0000  Ry
     scf convergence threshold =      1.0E-08
     mixing beta               =       0.7000
     number of iterations used =            8  plain     mixing
     energy convergence thresh.=      1.0E-04
     force convergence thresh. =      1.0E-03
     press convergence thresh. =      5.0E-01
     Exchange-correlation= SLA  PZ   NOGX NOGC
                           (   1   1   0   0   0   0   0)
     nstep                     =           50

     celldm(1)=   6.253104  celldm(2)=   0.000000  celldm(3)=   1.594000
     celldm(4)=   0.000000  celldm(5)=   0.000000  celldm(6)=   0.000000

     crystal axes: (cart. coord. in units of alat)
               a(1) = (   1.000000   0.000000   0.000000 )
               a(2) = (  -0.500000   0.866025   0.000000 )
               a(3) = (   0.000000   0.000000   1.594000 )

     reciprocal axes: (cart. coord. in units 2 pi/alat)
               b(1) = (  1.000000  0.577350 -0.000000 )
               b(2) = (  0.000000  1.154701  0.000000 )
               b(3) = (  0.000000 -0.000000  0.627353 )

     PseudoPot. # 1 for Sc read from file:
     ../../../Sc.pz-spn-kjpaw_psl.1.0.0.UPF
     MD5 check sum: 1f9095df0bb42a6568b4e9f256ff075f
     Pseudo is Projector augmented-wave + core cor, Zval = 11.0
     Generated using 'atomic' code by A. Dal Corso  v.7.1
     Shape of augmentation charge: PSQ
     Using radial grid of 1173 points,  6 beta functions with:
                l(1) =   0
                l(2) =   0
                l(3) =   1
                l(4) =   1
                l(5) =   2
                l(6) =   2
     Q(r) pseudized with 0 coefficients

     atomic species   valence    mass     pseudopotential
        Sc            11.00    44.59600     Sc( 1.00)

     24 Sym. Ops., with inversion, found (12 have fractional translation)

   Cartesian axes

     site n.     atom                  positions (alat units)
         1           Sc  tau(   1) = (   0.0000000   0.0000000   0.0000000  )
         2           Sc  tau(   2) = (   0.5000000   0.2886751   0.7970000  )

     number of k points=    95  Marzari-Vanderbilt smearing, width (Ry)=  0.0200
                       cart. coord. in units 2pi/alat
        k(    1) = (   0.0000000   0.0000000   0.0000000), wk =   0.0017361
        k(    2) = (   0.0000000   0.0000000   0.0784191), wk =   0.0034722
        k(    3) = (   0.0000000   0.0000000   0.1568381), wk =   0.0034722
        k(    4) = (   0.0000000   0.0000000   0.2352572), wk =   0.0034722
        k(    5) = (   0.0000000   0.0000000  -0.3136763), wk =   0.0017361
        k(    6) = (   0.0000000   0.0962250   0.0000000), wk =   0.0104167
        k(    7) = (   0.0000000   0.0962250   0.0784191), wk =   0.0208333
        k(    8) = (   0.0000000   0.0962250   0.1568381), wk =   0.0208333
        k(    9) = (   0.0000000   0.0962250   0.2352572), wk =   0.0208333
        k(   10) = (   0.0000000   0.0962250  -0.3136763), wk =   0.0104167
        k(   11) = (   0.0000000   0.1924501   0.0000000), wk =   0.0104167
        k(   12) = (   0.0000000   0.1924501   0.0784191), wk =   0.0208333
        k(   13) = (   0.0000000   0.1924501   0.1568381), wk =   0.0208333
        k(   14) = (   0.0000000   0.1924501   0.2352572), wk =   0.0208333
        k(   15) = (   0.0000000   0.1924501  -0.3136763), wk =   0.0104167
        k(   16) = (   0.0000000   0.2886751   0.0000000), wk =   0.0104167
        k(   17) = (   0.0000000   0.2886751   0.0784191), wk =   0.0208333
        k(   18) = (   0.0000000   0.2886751   0.1568381), wk =   0.0208333
        k(   19) = (   0.0000000   0.2886751   0.2352572), wk =   0.0208333
        k(   20) = (   0.0000000   0.2886751  -0.3136763), wk =   0.0104167
        k(   21) = (   0.0000000   0.3849002   0.0000000), wk =   0.0104167
        k(   22) = (   0.0000000   0.3849002   0.0784191), wk =   0.0208333
        k(   23) = (   0.0000000   0.3849002   0.1568381), wk =   0.0208333
        k(   24) = (   0.0000000   0.3849002   0.2352572), wk =   0.0208333
        k(   25) = (   0.0000000   0.3849002  -0.3136763), wk =   0.0104167
        k(   26) = (   0.0000000   0.4811252   0.0000000), wk =   0.0104167
        k(   27) = (   0.0000000   0.4811252   0.0784191), wk =   0.0208333
        k(   28) = (   0.0000000   0.4811252   0.1568381), wk =   0.0208333
        k(   29) = (   0.0000000   0.4811252   0.2352572), wk =   0.0208333
        k(   30) = (   0.0000000   0.4811252  -0.3136763), wk =   0.0104167
        k(   31) = (   0.0000000  -0.5773503   0.0000000), wk =   0.0052083
        k(   32) = (   0.0000000  -0.5773503   0.0784191), wk =   0.0104167
        k(   33) = (   0.0000000  -0.5773503   0.1568381), wk =   0.0104167
        k(   34) = (   0.0000000  -0.5773503   0.2352572), wk =   0.0104167
        k(   35) = (   0.0000000  -0.5773503  -0.3136763), wk =   0.0052083
        k(   36) = (   0.0833333   0.1443376   0.0000000), wk =   0.0104167
        k(   37) = (   0.0833333   0.1443376   0.0784191), wk =   0.0208333
        k(   38) = (   0.0833333   0.1443376   0.1568381), wk =   0.0208333
        k(   39) = (   0.0833333   0.1443376   0.2352572), wk =   0.0208333
        k(   40) = (   0.0833333   0.1443376  -0.3136763), wk =   0.0104167
        k(   41) = (   0.0833333   0.2405626   0.0000000), wk =   0.0208333
        k(   42) = (   0.0833333   0.2405626   0.0784191), wk =   0.0416667
        k(   43) = (   0.0833333   0.2405626   0.1568381), wk =   0.0416667
        k(   44) = (   0.0833333   0.2405626   0.2352572), wk =   0.0416667
        k(   45) = (   0.0833333   0.2405626  -0.3136763), wk =   0.0208333
        k(   46) = (   0.0833333   0.3367877   0.0000000), wk =   0.0208333
        k(   47) = (   0.0833333   0.3367877   0.0784191), wk =   0.0416667
        k(   48) = (   0.0833333   0.3367877   0.1568381), wk =   0.0416667
        k(   49) = (   0.0833333   0.3367877   0.2352572), wk =   0.0416667
        k(   50) = (   0.0833333   0.3367877  -0.3136763), wk =   0.0208333
        k(   51) = (   0.0833333   0.4330127   0.0000000), wk =   0.0208333
        k(   52) = (   0.0833333   0.4330127   0.0784191), wk =   0.0416667
        k(   53) = (   0.0833333   0.4330127   0.1568381), wk =   0.0416667
        k(   54) = (   0.0833333   0.4330127   0.2352572), wk =   0.0416667
        k(   55) = (   0.0833333   0.4330127  -0.3136763), wk =   0.0208333
        k(   56) = (   0.0833333   0.5292377   0.0000000), wk =   0.0208333
        k(   57) = (   0.0833333   0.5292377   0.0784191), wk =   0.0416667
        k(   58) = (   0.0833333   0.5292377   0.1568381), wk =   0.0416667
        k(   59) = (   0.0833333   0.5292377   0.2352572), wk =   0.0416667
        k(   60) = (   0.0833333   0.5292377  -0.3136763), wk =   0.0208333
[...]
        k(   81) = (   0.2500000   0.4330127   0.0000000), wk =   0.0104167
        k(   82) = (   0.2500000   0.4330127   0.0784191), wk =   0.0208333
        k(   83) = (   0.2500000   0.4330127   0.1568381), wk =   0.0208333
        k(   84) = (   0.2500000   0.4330127   0.2352572), wk =   0.0208333
        k(   85) = (   0.2500000   0.4330127  -0.3136763), wk =   0.0104167
        k(   86) = (   0.2500000   0.5292377   0.0000000), wk =   0.0208333
        k(   87) = (   0.2500000   0.5292377   0.0784191), wk =   0.0416667
        k(   88) = (   0.2500000   0.5292377   0.1568381), wk =   0.0416667
        k(   89) = (   0.2500000   0.5292377   0.2352572), wk =   0.0416667
        k(   90) = (   0.2500000   0.5292377  -0.3136763), wk =   0.0208333
        k(   91) = (   0.3333333   0.5773503   0.0000000), wk =   0.0034722
        k(   92) = (   0.3333333   0.5773503   0.0784191), wk =   0.0069444
        k(   93) = (   0.3333333   0.5773503   0.1568381), wk =   0.0069444
        k(   94) = (   0.3333333   0.5773503   0.2352572), wk =   0.0069444
        k(   95) = (   0.3333333   0.5773503  -0.3136763), wk =   0.0034722

     Check: negative core charge=   -0.000004

     Initial potential from superposition of free atoms

     starting charge      21.9956, renormalised to      22.0000
     Starting wfcs are   20 randomized atomic wfcs
     Checking if some PAW data can be deallocated...

     Self-consistent Calculation

     iteration #  1     ecut=   120.00 Ry     beta= 0.70
     Davidson diagonalization with overlap
     ethr =  1.00E-02,  avg # of iterations =  2.1

     Threshold (ethr) on eigenvalues was too large:
     Diagonalizing with lowered threshold

     Davidson diagonalization with overlap
     c_bands:  1 eigenvalues not converged
     c_bands:  2 eigenvalues not converged
     c_bands:  1 eigenvalues not converged
     c_bands:  1 eigenvalues not converged
     c_bands:  2 eigenvalues not converged
     c_bands:  4 eigenvalues not converged
     c_bands:  1 eigenvalues not converged
     c_bands:  3 eigenvalues not converged
     c_bands:  2 eigenvalues not converged
     c_bands:  4 eigenvalues not converged
     c_bands:  4 eigenvalues not converged
     c_bands:  1 eigenvalues not converged
     c_bands:  1 eigenvalues not converged
     c_bands:  1 eigenvalues not converged
     c_bands:  3 eigenvalues not converged
     c_bands:  2 eigenvalues not converged
     c_bands:  2 eigenvalues not converged
     c_bands:  3 eigenvalues not converged
     c_bands:  1 eigenvalues not converged
     c_bands:  2 eigenvalues not converged
     c_bands:  4 eigenvalues not converged
     c_bands:  2 eigenvalues not converged
     c_bands:  1 eigenvalues not converged
     c_bands:  2 eigenvalues not converged
     c_bands:  1 eigenvalues not converged
     c_bands:  4 eigenvalues not converged
     c_bands:  1 eigenvalues not converged
     ethr =  2.43E-05,  avg # of iterations = 17.5

     total energy              =    -306.86752999 Ry
     estimated scf accuracy    <       0.01995305 Ry

[...]

     iteration #  3     ecut=   120.00 Ry     beta= 0.70
     Davidson diagonalization with overlap
     c_bands:  2 eigenvalues not converged
     ethr =  6.51E-06,  avg # of iterations =  8.2

[...]

     End of self-consistent calculation

          k = 0.0000 0.0000 0.0000 (  7499 PWs)   bands (ev):

[...]

[...]

     enthalpy           old  =    -306.8738242407 Ry
     enthalpy           new  =    -306.8769719745 Ry

     CASE: enthalpy          _new < enthalpy          _old

[...]

     number of scf cycles    =   8
     number of bfgs steps    =   7

     enthalpy           old  =    -306.8810335947 Ry
     enthalpy           new  =    -306.8810459975 Ry

     CASE: enthalpy          _new < enthalpy          _old

     new trust radius        =       0.0010924240 bohr
     new conv_thr            =            1.0E-10 Ry

     new unit-cell volume =    303.67533 a.u.^3 (    45.00004 Ang^3 )
     density =      3.29126 g/cm^3

[...]

ATOMIC_POSITIONS (crystal)
Sc           -0.0000000000       -0.0000000000        0.0000000000
Sc            0.6666666667        0.3333333333        0.5000000000

     Writing config-only to output data dir sc_vcrelax.out/scandium.save/
     NEW-OLD atomic charge density approx. for the potential

     Check: negative core charge=   -0.000003
     extrapolated charge   21.98711, renormalised to   22.00000

[...]

     Threshold (ethr) on eigenvalues was too large:
     Diagonalizing with lowered threshold

     Davidson diagonalization with overlap
     ethr =  3.38E-08,  avg # of iterations =  4.9

[...]

     Energy error            =      4.5E-07 Ry
     Gradient error          =      1.1E-27 Ry/Bohr
     Cell gradient error     =      2.1E-01 kbar

     bfgs converged in   9 scf cycles and   8 bfgs steps
     (criteria: energy <  1.0E-04 Ry, force <  1.0E-03 Ry/Bohr, cell <  5.0E-01 kbar)

     End of BFGS Geometry Optimization

     Final enthalpy           =    -306.8810464435 Ry

     File sc_vcrelax.out/scandium.bfgs deleted, as requested
Begin final coordinates
     new unit-cell volume =    303.67533 a.u.^3 (    45.00004 Ang^3 )
     density =      3.29126 g/cm^3

CELL_PARAMETERS (alat=  6.25310370)
   0.975395444  -0.000000000   0.000000000
  -0.487697722   0.844717233  -0.000000000
  -0.000000000  -0.000000000   1.507407049

ATOMIC_POSITIONS (crystal)
Sc           -0.0000000000       -0.0000000000        0.0000000000
Sc            0.6666666667        0.3333333333        0.5000000000
End final coordinates

     Writing config-only to output data dir sc_vcrelax.out/scandium.save/

     Final scf calculation at the relaxed structure.
     The G-vectors are recalculated for the final unit cell
     Results may differ from those at the preceding step.

     Using Slab Decomposition

     bravais-lattice index     =            4
     lattice parameter (alat)  =       6.2531  a.u.
     unit-cell volume          =     303.6753 (a.u.)^3
     number of atoms/cell      =            2
     number of atomic types    =            1
     number of electrons       =        22.00
     number of Kohn-Sham states=           15
     kinetic-energy cutoff     =     120.0000  Ry
     charge density cutoff     =     480.0000  Ry
     scf convergence threshold =      1.0E-10
     mixing beta               =       0.7000
     number of iterations used =            8  plain     mixing
     press convergence thresh. =      5.0E-01
     Exchange-correlation= SLA  PZ   NOGX NOGC
                           (   1   1   0   0   0   0   0)

     celldm(1)=   6.253104  celldm(2)=   0.000000  celldm(3)=   1.594000
     celldm(4)=   0.000000  celldm(5)=   0.000000  celldm(6)=   0.000000

     crystal axes: (cart. coord. in units of alat)
               a(1) = (   0.975395  -0.000000   0.000000 )
               a(2) = (  -0.487698   0.844717  -0.000000 )
               a(3) = (  -0.000000  -0.000000   1.507407 )

     reciprocal axes: (cart. coord. in units 2 pi/alat)
               b(1) = (  1.025225  0.591914  0.000000 )
               b(2) = (  0.000000  1.183828  0.000000 )
               b(3) = ( -0.000000 -0.000000  0.663391 )

     PseudoPot. # 1 for Sc read from file:
     ../../../Sc.pz-spn-kjpaw_psl.1.0.0.UPF
     MD5 check sum: 1f9095df0bb42a6568b4e9f256ff075f
     Pseudo is Projector augmented-wave + core cor, Zval = 11.0
     Generated using 'atomic' code by A. Dal Corso  v.7.1
     Shape of augmentation charge: PSQ
     Using radial grid of 1173 points,  6 beta functions with:
                l(1) =   0
                l(2) =   0
                l(3) =   1
                l(4) =   1
                l(5) =   2
                l(6) =   2
     Q(r) pseudized with 0 coefficients

     atomic species   valence    mass     pseudopotential
        Sc            11.00    44.59600     Sc( 1.00)

     24 Sym. Ops., with inversion, found (12 have fractional translation)

   Cartesian axes

     site n.     atom                  positions (alat units)
         1           Sc  tau(   1) = (   0.0000000  -0.0000000   0.0000000  )
         2           Sc  tau(   2) = (   0.4876977   0.2815724   0.7537035  )

     number of k points=    95  Marzari-Vanderbilt smearing, width (Ry)=  0.0200
                       cart. coord. in units 2pi/alat
        k(    1) = (   0.0000000   0.0000000   0.0000000), wk =   0.0017361
        k(    2) = (  -0.0000000  -0.0000000   0.0829239), wk =   0.0034722
        k(    3) = (  -0.0000000  -0.0000000   0.1658477), wk =   0.0034722
        k(    4) = (  -0.0000000  -0.0000000   0.2487716), wk =   0.0034722
        k(    5) = (   0.0000000   0.0000000  -0.3316954), wk =   0.0017361
        k(    6) = (   0.0000000   0.0986523   0.0000000), wk =   0.0104167
        k(    7) = (   0.0000000   0.0986523   0.0829239), wk =   0.0208333
        k(    8) = (   0.0000000   0.0986523   0.1658477), wk =   0.0208333
        k(    9) = (   0.0000000   0.0986523   0.2487716), wk =   0.0208333
        k(   10) = (   0.0000000   0.0986523  -0.3316954), wk =   0.0104167
        k(   11) = (   0.0000000   0.1973047   0.0000000), wk =   0.0104167
        k(   12) = (   0.0000000   0.1973047   0.0829239), wk =   0.0208333
        k(   13) = (   0.0000000   0.1973047   0.1658477), wk =   0.0208333
        k(   14) = (   0.0000000   0.1973047   0.2487716), wk =   0.0208333
        k(   15) = (   0.0000000   0.1973047  -0.3316954), wk =   0.0104167
        k(   16) = (   0.0000000   0.2959570   0.0000000), wk =   0.0104167
        k(   17) = (   0.0000000   0.2959570   0.0829239), wk =   0.0208333
        k(   18) = (   0.0000000   0.2959570   0.1658477), wk =   0.0208333
        k(   19) = (   0.0000000   0.2959570   0.2487716), wk =   0.0208333
        k(   20) = (   0.0000000   0.2959570  -0.3316954), wk =   0.0104167
        k(   21) = (   0.0000000   0.3946094   0.0000000), wk =   0.0104167
        k(   22) = (   0.0000000   0.3946094   0.0829239), wk =   0.0208333
        k(   23) = (   0.0000000   0.3946094   0.1658477), wk =   0.0208333
        k(   24) = (   0.0000000   0.3946094   0.2487716), wk =   0.0208333
        k(   25) = (   0.0000000   0.3946094  -0.3316954), wk =   0.0104167
        k(   26) = (   0.0000000   0.4932617   0.0000000), wk =   0.0104167
        k(   27) = (   0.0000000   0.4932617   0.0829239), wk =   0.0208333
        k(   28) = (   0.0000000   0.4932617   0.1658477), wk =   0.0208333
        k(   29) = (   0.0000000   0.4932617   0.2487716), wk =   0.0208333
        k(   30) = (   0.0000000   0.4932617  -0.3316954), wk =   0.0104167
        k(   31) = (  -0.0000000  -0.5919141  -0.0000000), wk =   0.0052083
        k(   32) = (  -0.0000000  -0.5919141   0.0829239), wk =   0.0104167
        k(   33) = (  -0.0000000  -0.5919141   0.1658477), wk =   0.0104167
        k(   34) = (  -0.0000000  -0.5919141   0.2487716), wk =   0.0104167
        k(   35) = (  -0.0000000  -0.5919141  -0.3316954), wk =   0.0052083
        k(   36) = (   0.0854354   0.1479785   0.0000000), wk =   0.0104167
        k(   37) = (   0.0854354   0.1479785   0.0829239), wk =   0.0208333
        k(   38) = (   0.0854354   0.1479785   0.1658477), wk =   0.0208333
        k(   39) = (   0.0854354   0.1479785   0.2487716), wk =   0.0208333
        k(   40) = (   0.0854354   0.1479785  -0.3316954), wk =   0.0104167
        k(   41) = (   0.0854354   0.2466309   0.0000000), wk =   0.0208333
        k(   42) = (   0.0854354   0.2466309   0.0829239), wk =   0.0416667
        k(   43) = (   0.0854354   0.2466309   0.1658477), wk =   0.0416667
        k(   44) = (   0.0854354   0.2466309   0.2487716), wk =   0.0416667
        k(   45) = (   0.0854354   0.2466309  -0.3316954), wk =   0.0208333
        k(   46) = (   0.0854354   0.3452832   0.0000000), wk =   0.0208333
        k(   47) = (   0.0854354   0.3452832   0.0829239), wk =   0.0416667
        k(   48) = (   0.0854354   0.3452832   0.1658477), wk =   0.0416667
        k(   49) = (   0.0854354   0.3452832   0.2487716), wk =   0.0416667
        k(   50) = (   0.0854354   0.3452832  -0.3316954), wk =   0.0208333
        k(   51) = (   0.0854354   0.4439355   0.0000000), wk =   0.0208333
        k(   52) = (   0.0854354   0.4439355   0.0829239), wk =   0.0416667
        k(   53) = (   0.0854354   0.4439355   0.1658477), wk =   0.0416667
        k(   54) = (   0.0854354   0.4439355   0.2487716), wk =   0.0416667
        k(   55) = (   0.0854354   0.4439355  -0.3316954), wk =   0.0208333
        k(   56) = (   0.0854354   0.5425879   0.0000000), wk =   0.0208333
        k(   57) = (   0.0854354   0.5425879   0.0829239), wk =   0.0416667
        k(   58) = (   0.0854354   0.5425879   0.1658477), wk =   0.0416667
        k(   59) = (   0.0854354   0.5425879   0.2487716), wk =   0.0416667
        k(   60) = (   0.0854354   0.5425879  -0.3316954), wk =   0.0208333
[...]
        k(   81) = (   0.2563063   0.4439355   0.0000000), wk =   0.0104167
        k(   82) = (   0.2563063   0.4439355   0.0829239), wk =   0.0208333
        k(   83) = (   0.2563063   0.4439355   0.1658477), wk =   0.0208333
        k(   84) = (   0.2563063   0.4439355   0.2487716), wk =   0.0208333
        k(   85) = (   0.2563063   0.4439355  -0.3316954), wk =   0.0104167
        k(   86) = (   0.2563063   0.5425879   0.0000000), wk =   0.0208333
        k(   87) = (   0.2563063   0.5425879   0.0829239), wk =   0.0416667
        k(   88) = (   0.2563063   0.5425879   0.1658477), wk =   0.0416667
        k(   89) = (   0.2563063   0.5425879   0.2487716), wk =   0.0416667
        k(   90) = (   0.2563063   0.5425879  -0.3316954), wk =   0.0208333
        k(   91) = (   0.3417417   0.5919141   0.0000000), wk =   0.0034722
        k(   92) = (   0.3417417   0.5919141   0.0829239), wk =   0.0069444
        k(   93) = (   0.3417417   0.5919141   0.1658477), wk =   0.0069444
        k(   94) = (   0.3417417   0.5919141   0.2487716), wk =   0.0069444
        k(   95) = (   0.3417417   0.5919141  -0.3316954), wk =   0.0034722

     Check: negative core charge=   -0.000004

     Initial potential from superposition of free atoms

     starting charge      21.9956, renormalised to      22.0000
     Starting wfcs are   20 randomized atomic wfcs
     Checking if some PAW data can be deallocated...

     Self-consistent Calculation

[...]

     iteration #  9     ecut=   120.00 Ry     beta= 0.70
     Davidson diagonalization with overlap
     c_bands:  1 eigenvalues not converged
     c_bands:  1 eigenvalues not converged
     c_bands:  1 eigenvalues not converged
     c_bands:  1 eigenvalues not converged
     c_bands:  1 eigenvalues not converged
     c_bands:  1 eigenvalues not converged
     c_bands:  2 eigenvalues not converged
     c_bands:  2 eigenvalues not converged
     c_bands:  2 eigenvalues not converged
     c_bands:  1 eigenvalues not converged
     c_bands:  1 eigenvalues not converged
     c_bands:  2 eigenvalues not converged
     c_bands:  1 eigenvalues not converged
     c_bands:  1 eigenvalues not converged
     c_bands:  1 eigenvalues not converged
     c_bands:  3 eigenvalues not converged
     c_bands:  3 eigenvalues not converged
     c_bands:  1 eigenvalues not converged
     c_bands:  1 eigenvalues not converged
     c_bands:  1 eigenvalues not converged
     c_bands:  1 eigenvalues not converged
     c_bands:  2 eigenvalues not converged
     c_bands:  1 eigenvalues not converged
     c_bands:  1 eigenvalues not converged
     c_bands:  2 eigenvalues not converged
     c_bands:  2 eigenvalues not converged
     c_bands:  1 eigenvalues not converged
     c_bands:  2 eigenvalues not converged
     c_bands:  2 eigenvalues not converged
     c_bands:  2 eigenvalues not converged
     c_bands:  2 eigenvalues not converged
     c_bands:  3 eigenvalues not converged
     c_bands:  3 eigenvalues not converged
     c_bands:  1 eigenvalues not converged
     c_bands:  1 eigenvalues not converged
     c_bands:  4 eigenvalues not converged
     c_bands:  2 eigenvalues not converged
     c_bands:  1 eigenvalues not converged
     c_bands:  3 eigenvalues not converged
     c_bands:  2 eigenvalues not converged
     c_bands:  3 eigenvalues not converged
     c_bands:  3 eigenvalues not converged
     c_bands:  1 eigenvalues not converged
     c_bands:  4 eigenvalues not converged
     c_bands:  1 eigenvalues not converged
     c_bands:  3 eigenvalues not converged
     c_bands:  3 eigenvalues not converged
     c_bands:  2 eigenvalues not converged
     c_bands:  3 eigenvalues not converged
     c_bands:  3 eigenvalues not converged
     c_bands:  1 eigenvalues not converged
     c_bands:  1 eigenvalues not converged
     c_bands:  4 eigenvalues not converged
     c_bands:  3 eigenvalues not converged
     c_bands:  3 eigenvalues not converged
     c_bands:  1 eigenvalues not converged
     ethr =  7.74E-11,  avg # of iterations = 19.5

[...]

     total energy              =    -306.88101559 Ry
     estimated scf accuracy    <          9.5E-10 Ry

     iteration # 15     ecut=   120.00 Ry     beta= 0.70
     Davidson diagonalization with overlap
     ethr =  4.33E-12,  avg # of iterations =  9.6

     End of self-consistent calculation

[...]

          k =-0.0000-0.5919-0.3317 (  6752 PWs)   bands (ev):

[...]

          k = 0.3417 0.5919-0.3317 (  6744 PWs)   bands (ev):

   -38.5348 -38.5348 -17.7200 -17.7200 -17.5665 -17.5665 -17.3304 -17.3304
     9.5919   9.5919   9.8468   9.8468  10.4025  10.4025  12.5969

     the Fermi energy is    10.0378 ev

!    total energy              =    -306.88101560 Ry
     total all-electron energy =     -3050.021786 Ry
     estimated scf accuracy    <          7.0E-11 Ry
     smearing contrib. (-TS)   =      -0.00077228 Ry
     internal energy E=F+TS    =    -306.88024332 Ry

     The total energy is F=E-TS. E is the sum of the following terms:
     one-electron contribution =     -67.63236377 Ry
     hartree contribution      =      40.13543527 Ry
     xc contribution           =     -34.67044936 Ry
     ewald contribution        =    -130.95656362 Ry
     one-center paw contrib.   =    -113.75630183 Ry

     convergence has been achieved in  15 iterations

     Forces acting on atoms (cartesian axes, Ry/au):

     atom    1 type  1   force =    -0.00000000    0.00000000   -0.00000000
     atom    2 type  1   force =     0.00000000    0.00000000    0.00000000
     The non-local contrib.  to forces
     atom    1 type  1   force =     0.00000000    0.00000000    0.00000000
     atom    2 type  1   force =     0.00000000    0.00000000    0.00000000
     The ionic contribution  to forces
     atom    1 type  1   force =     0.00000000   -0.00000000   -0.00000000
     atom    2 type  1   force =    -0.00000000    0.00000000    0.00000000
     The local contribution  to forces
     atom    1 type  1   force =     0.00000000    0.00000000   -0.00000000
     atom    2 type  1   force =    -0.00000000    0.00000000    0.00000000
     The core correction contribution to forces
     atom    1 type  1   force =     0.00000000    0.00000000    0.00000000
     atom    2 type  1   force =     0.00000000   -0.00000000   -0.00000000
     The Hubbard contrib.    to forces
     atom    1 type  1   force =     0.00000000    0.00000000    0.00000000
     atom    2 type  1   force =     0.00000000    0.00000000    0.00000000
     The SCF correction term to forces
     atom    1 type  1   force =    -0.00000000    0.00000000   -0.00000000
     atom    2 type  1   force =     0.00000000    0.00000000   -0.00000000

     Total force =     0.000000     Total SCF correction =     0.000000

     Computing stress (Cartesian axis) and pressure

          total   stress  (Ry/bohr**3)                   (kbar)     P=       -0.28
  -0.00000192  -0.00000000  -0.00000000           -0.28       -0.00       -0.00
  -0.00000000  -0.00000192  -0.00000000           -0.00       -0.28       -0.00
  -0.00000000  -0.00000000  -0.00000186           -0.00       -0.00       -0.27

     Writing all to output data dir sc_vcrelax.out/scandium.save/

     General routines

     Parallel routines

   This run was terminated on:  19:50:41  19Jun2023

   JOB DONE.