     Program PWSCF v.7.2 starts on 21Jul2023 at 14: 8:31

     Waiting for input...
     Reading input from standard input

     Current dimensions of program PWSCF are:
     Max number of different atomic species (ntypx) = 10
     Max number of k-points (npk) = 120000
     Max angular momentum in pseudopotentials (lmaxx) =  4

     File sc_vcrelax.out/scandium.update deleted, as requested

     File sc_vcrelax.out/scandium.bfgs deleted, as requested
     file Sc.pz-spn-kjpaw_psl.1.0.0.UPF: wavefunction(s)  3S 3P 3D renormalized

     R & G space division:  proc/nbgrp/npool/nimage =      20
     Subspace diagonalization in iterative solution of the eigenvalue problem:
     a serial algorithm will be used

     Using Slab Decomposition

     bravais-lattice index     =            4
     lattice parameter (alat)  =       6.2531  a.u.
     unit-cell volume          =     337.5249 (a.u.)^3
     number of atoms/cell      =            2
     number of atomic types    =            1
     number of electrons       =        22.00
     number of Kohn-Sham states=           15
     kinetic-energy cutoff     =      60.0000  Ry
     charge density cutoff     =     360.0000  Ry
     scf convergence threshold =      1.0E-08
     mixing beta               =       0.7000
     number of iterations used =            8  plain     mixing
     energy convergence thresh.=      1.0E-04
     force convergence thresh. =      1.0E-03
     press convergence thresh. =      5.0E-01
     Exchange-correlation= SLA  PZ   NOGX NOGC
                           (   1   1   0   0   0   0   0)
     nstep                     =           50

     celldm(1)=   6.253104  celldm(2)=   0.000000  celldm(3)=   1.594000
     celldm(4)=   0.000000  celldm(5)=   0.000000  celldm(6)=   0.000000

     crystal axes: (cart. coord. in units of alat)
               a(1) = (   1.000000   0.000000   0.000000 )
               a(2) = (  -0.500000   0.866025   0.000000 )
               a(3) = (   0.000000   0.000000   1.594000 )

     reciprocal axes: (cart. coord. in units 2 pi/alat)
               b(1) = (  1.000000  0.577350 -0.000000 )
               b(2) = (  0.000000  1.154701  0.000000 )
               b(3) = (  0.000000 -0.000000  0.627353 )

     PseudoPot. # 1 for Sc read from file:
     ../../../Sc.pz-spn-kjpaw_psl.1.0.0.UPF
     MD5 check sum: 1f9095df0bb42a6568b4e9f256ff075f
     Pseudo is Projector augmented-wave + core cor, Zval = 11.0
     Generated using 'atomic' code by A. Dal Corso  v.7.1
     Shape of augmentation charge: PSQ
     Using radial grid of 1173 points,  6 beta functions with:
                l(1) =   0
                l(2) =   0
                l(3) =   1
                l(4) =   1
                l(5) =   2
                l(6) =   2
     Q(r) pseudized with 0 coefficients

     atomic species   valence    mass     pseudopotential
        Sc            11.00    44.59600     Sc( 1.00)

     24 Sym. Ops., with inversion, found (12 have fractional translation)

   Cartesian axes

     site n.     atom                  positions (alat units)
         1           Sc  tau(   1) = (   0.0000000   0.0000000   0.0000000  )
         2           Sc  tau(   2) = (   0.5000000   0.2886751   0.7970000  )

     number of k points=    95  Marzari-Vanderbilt smearing, width (Ry)=  0.0200
                       cart. coord. in units 2pi/alat
        k(    1) = (   0.0000000   0.0000000   0.0000000), wk =   0.0017361
        k(    2) = (   0.0000000   0.0000000   0.0784191), wk =   0.0034722
        k(    3) = (   0.0000000   0.0000000   0.1568381), wk =   0.0034722
        k(    4) = (   0.0000000   0.0000000   0.2352572), wk =   0.0034722
        k(    5) = (   0.0000000   0.0000000  -0.3136763), wk =   0.0017361
        k(    6) = (   0.0000000   0.0962250   0.0000000), wk =   0.0104167
        k(    7) = (   0.0000000   0.0962250   0.0784191), wk =   0.0208333
        k(    8) = (   0.0000000   0.0962250   0.1568381), wk =   0.0208333
        k(    9) = (   0.0000000   0.0962250   0.2352572), wk =   0.0208333
        k(   10) = (   0.0000000   0.0962250  -0.3136763), wk =   0.0104167
        k(   11) = (   0.0000000   0.1924501   0.0000000), wk =   0.0104167
        k(   12) = (   0.0000000   0.1924501   0.0784191), wk =   0.0208333
        k(   13) = (   0.0000000   0.1924501   0.1568381), wk =   0.0208333
        k(   14) = (   0.0000000   0.1924501   0.2352572), wk =   0.0208333
        k(   15) = (   0.0000000   0.1924501  -0.3136763), wk =   0.0104167
        k(   16) = (   0.0000000   0.2886751   0.0000000), wk =   0.0104167
        k(   17) = (   0.0000000   0.2886751   0.0784191), wk =   0.0208333
        k(   18) = (   0.0000000   0.2886751   0.1568381), wk =   0.0208333
        k(   19) = (   0.0000000   0.2886751   0.2352572), wk =   0.0208333
        k(   20) = (   0.0000000   0.2886751  -0.3136763), wk =   0.0104167
        k(   21) = (   0.0000000   0.3849002   0.0000000), wk =   0.0104167
        k(   22) = (   0.0000000   0.3849002   0.0784191), wk =   0.0208333
        k(   23) = (   0.0000000   0.3849002   0.1568381), wk =   0.0208333
        k(   24) = (   0.0000000   0.3849002   0.2352572), wk =   0.0208333
        k(   25) = (   0.0000000   0.3849002  -0.3136763), wk =   0.0104167
        k(   26) = (   0.0000000   0.4811252   0.0000000), wk =   0.0104167
        k(   27) = (   0.0000000   0.4811252   0.0784191), wk =   0.0208333
        k(   28) = (   0.0000000   0.4811252   0.1568381), wk =   0.0208333
        k(   29) = (   0.0000000   0.4811252   0.2352572), wk =   0.0208333
        k(   30) = (   0.0000000   0.4811252  -0.3136763), wk =   0.0104167
        k(   31) = (   0.0000000  -0.5773503   0.0000000), wk =   0.0052083
        k(   32) = (   0.0000000  -0.5773503   0.0784191), wk =   0.0104167
        k(   33) = (   0.0000000  -0.5773503   0.1568381), wk =   0.0104167
        k(   34) = (   0.0000000  -0.5773503   0.2352572), wk =   0.0104167
        k(   35) = (   0.0000000  -0.5773503  -0.3136763), wk =   0.0052083
        k(   36) = (   0.0833333   0.1443376   0.0000000), wk =   0.0104167
        k(   37) = (   0.0833333   0.1443376   0.0784191), wk =   0.0208333
        k(   38) = (   0.0833333   0.1443376   0.1568381), wk =   0.0208333
        k(   39) = (   0.0833333   0.1443376   0.2352572), wk =   0.0208333
        k(   40) = (   0.0833333   0.1443376  -0.3136763), wk =   0.0104167
        k(   41) = (   0.0833333   0.2405626   0.0000000), wk =   0.0208333
        k(   42) = (   0.0833333   0.2405626   0.0784191), wk =   0.0416667
        k(   43) = (   0.0833333   0.2405626   0.1568381), wk =   0.0416667
        k(   44) = (   0.0833333   0.2405626   0.2352572), wk =   0.0416667
        k(   45) = (   0.0833333   0.2405626  -0.3136763), wk =   0.0208333
        k(   46) = (   0.0833333   0.3367877   0.0000000), wk =   0.0208333
        k(   47) = (   0.0833333   0.3367877   0.0784191), wk =   0.0416667
        k(   48) = (   0.0833333   0.3367877   0.1568381), wk =   0.0416667
        k(   49) = (   0.0833333   0.3367877   0.2352572), wk =   0.0416667
        k(   50) = (   0.0833333   0.3367877  -0.3136763), wk =   0.0208333
        k(   51) = (   0.0833333   0.4330127   0.0000000), wk =   0.0208333
        k(   52) = (   0.0833333   0.4330127   0.0784191), wk =   0.0416667
        k(   53) = (   0.0833333   0.4330127   0.1568381), wk =   0.0416667
        k(   54) = (   0.0833333   0.4330127   0.2352572), wk =   0.0416667
        k(   55) = (   0.0833333   0.4330127  -0.3136763), wk =   0.0208333
        k(   56) = (   0.0833333   0.5292377   0.0000000), wk =   0.0208333
        k(   57) = (   0.0833333   0.5292377   0.0784191), wk =   0.0416667
        k(   58) = (   0.0833333   0.5292377   0.1568381), wk =   0.0416667
        k(   59) = (   0.0833333   0.5292377   0.2352572), wk =   0.0416667
        k(   60) = (   0.0833333   0.5292377  -0.3136763), wk =   0.0208333
[...]
        k(   81) = (   0.2500000   0.4330127   0.0000000), wk =   0.0104167
        k(   82) = (   0.2500000   0.4330127   0.0784191), wk =   0.0208333
        k(   83) = (   0.2500000   0.4330127   0.1568381), wk =   0.0208333
        k(   84) = (   0.2500000   0.4330127   0.2352572), wk =   0.0208333
        k(   85) = (   0.2500000   0.4330127  -0.3136763), wk =   0.0104167
        k(   86) = (   0.2500000   0.5292377   0.0000000), wk =   0.0208333
        k(   87) = (   0.2500000   0.5292377   0.0784191), wk =   0.0416667
        k(   88) = (   0.2500000   0.5292377   0.1568381), wk =   0.0416667
        k(   89) = (   0.2500000   0.5292377   0.2352572), wk =   0.0416667
        k(   90) = (   0.2500000   0.5292377  -0.3136763), wk =   0.0208333
        k(   91) = (   0.3333333   0.5773503   0.0000000), wk =   0.0034722
        k(   92) = (   0.3333333   0.5773503   0.0784191), wk =   0.0069444
        k(   93) = (   0.3333333   0.5773503   0.1568381), wk =   0.0069444
        k(   94) = (   0.3333333   0.5773503   0.2352572), wk =   0.0069444
        k(   95) = (   0.3333333   0.5773503  -0.3136763), wk =   0.0034722

     Check: negative core charge=   -0.000008

     Initial potential from superposition of free atoms

     starting charge      21.9956, renormalised to      22.0000
     Starting wfcs are   20 randomized atomic wfcs
     Checking if some PAW data can be deallocated...

     Self-consistent Calculation

     iteration #  1     ecut=    60.00 Ry     beta= 0.70
     Davidson diagonalization with overlap
     ethr =  1.00E-02,  avg # of iterations =  2.5

     Threshold (ethr) on eigenvalues was too large:
     Diagonalizing with lowered threshold

     Davidson diagonalization with overlap
     c_bands:  1 eigenvalues not converged
     c_bands:  3 eigenvalues not converged
     c_bands:  2 eigenvalues not converged
     c_bands:  1 eigenvalues not converged
     c_bands:  1 eigenvalues not converged
     c_bands:  2 eigenvalues not converged
     c_bands:  2 eigenvalues not converged
     c_bands:  3 eigenvalues not converged
     c_bands:  2 eigenvalues not converged
     c_bands:  1 eigenvalues not converged
     c_bands:  1 eigenvalues not converged
     ethr =  3.35E-05,  avg # of iterations = 15.2

     total energy              =    -306.86340551 Ry
     estimated scf accuracy    <       0.02013140 Ry

[...]

     iteration #  3     ecut=    60.00 Ry     beta= 0.70
     Davidson diagonalization with overlap
     c_bands:  1 eigenvalues not converged
     ethr =  8.12E-06,  avg # of iterations =  7.6

[...]

     End of self-consistent calculation

          k = 0.0000 0.0000 0.0000 (  2671 PWs)   bands (ev):

   -40.1404 -40.0760 -19.2241 -18.8909 -18.8909 -18.8326 -18.8326 -18.8155
     3.7530   7.1443   9.3013  10.3561  10.3562  10.4663  10.7595

[...]

     the Fermi energy is     8.8194 ev

!    total energy              =    -306.86964304 Ry
     total all-electron energy =     -3050.010414 Ry
     estimated scf accuracy    <          6.1E-09 Ry
     smearing contrib. (-TS)   =      -0.00103847 Ry
     internal energy E=F+TS    =    -306.86860458 Ry

     The total energy is F=E-TS. E is the sum of the following terms:
     one-electron contribution =     -74.39568291 Ry
[...]
     atom    2 type  1   force =     0.00000000   -0.00000000    0.00000000
     The Hubbard contrib.    to forces
     atom    1 type  1   force =     0.00000000    0.00000000    0.00000000
     atom    2 type  1   force =     0.00000000    0.00000000    0.00000000
     The SCF correction term to forces
     atom    1 type  1   force =    -0.00000000   -0.00000000   -0.00000000
     atom    2 type  1   force =    -0.00000000    0.00000000   -0.00000000

     Total force =     0.000000     Total SCF correction =     0.000000

     Computing stress (Cartesian axis) and pressure

          total   stress  (Ry/bohr**3)                   (kbar)     P=      -61.30
  -0.00037658   0.00000000   0.00000000          -55.40        0.00        0.00
   0.00000000  -0.00037658  -0.00000000            0.00      -55.40       -0.00
   0.00000000   0.00000000  -0.00049699            0.00        0.00      -73.11

     BFGS Geometry Optimization
     Energy error            =      0.0E+00 Ry
     Gradient error          =      2.8E-27 Ry/Bohr
     Cell gradient error     =      7.3E+01 kbar

     number of scf cycles    =   1
     number of bfgs steps    =   0

     enthalpy           new  =    -306.8696430431 Ry

     new trust radius        =       0.0456533939 bohr
     new conv_thr            =       0.0000000100 Ry

     new unit-cell volume =    327.08441 a.u.^3 (    48.46891 Ang^3 )
     density =      3.05571 g/cm^3

CELL_PARAMETERS (alat=  6.25310370)
   0.990585385   0.000000000   0.000000000
  -0.495292693   0.857872108   0.000000000
   0.000000000  -0.000000000   1.574194835

ATOMIC_POSITIONS (crystal)
Sc            0.0000000000        0.0000000000       -0.0000000000
Sc            0.6666666667        0.3333333333        0.5000000000

     Writing config-only to output data dir sc_vcrelax.out/scandium.save/
     NEW-OLD atomic charge density approx. for the potential

     Check: negative core charge=   -0.000009
     extrapolated charge   21.29790, renormalised to   22.00000

[...]

     Energy error            =      3.9E-03 Ry
     Gradient error          =      1.6E-27 Ry/Bohr
     Cell gradient error     =      5.9E+01 kbar

[...]

     enthalpy           old  =    -306.8696430431 Ry
     enthalpy           new  =    -306.8735560386 Ry

     CASE: enthalpy          _new < enthalpy          _old

[...]

          k =-0.0000-0.0000 0.0809 (  2677 PWs)   bands (ev):

[...]

     Davidson diagonalization with overlap
     ethr =  7.14E-08,  avg # of iterations =  4.7

[...]

     number of scf cycles    =   8
     number of bfgs steps    =   7

     enthalpy           old  =    -306.8783177717 Ry
     enthalpy           new  =    -306.8783315286 Ry

     CASE: enthalpy          _new < enthalpy          _old

     new trust radius        =       0.0009968022 bohr
     new conv_thr            =            1.0E-10 Ry

     new unit-cell volume =    300.95318 a.u.^3 (    44.59666 Ang^3 )
     density =      3.32103 g/cm^3

[...]

ATOMIC_POSITIONS (crystal)
Sc            0.0000000000        0.0000000000        0.0000000000
Sc            0.6666666667        0.3333333333        0.5000000000

     Writing config-only to output data dir sc_vcrelax.out/scandium.save/
     NEW-OLD atomic charge density approx. for the potential

     Check: negative core charge=   -0.000012
     extrapolated charge   21.98790, renormalised to   22.00000

[...]

     Threshold (ethr) on eigenvalues was too large:
     Diagonalizing with lowered threshold

     Davidson diagonalization with overlap
     ethr =  2.96E-08,  avg # of iterations =  6.2

[...]

     Energy error            =      4.7E-07 Ry
     Gradient error          =      1.1E-27 Ry/Bohr
     Cell gradient error     =      1.9E-01 kbar

     bfgs converged in   9 scf cycles and   8 bfgs steps
     (criteria: energy <  1.0E-04 Ry, force <  1.0E-03 Ry/Bohr, cell <  5.0E-01 kbar)

     End of BFGS Geometry Optimization

     Final enthalpy           =    -306.8783310570 Ry

     File sc_vcrelax.out/scandium.bfgs deleted, as requested
Begin final coordinates
     new unit-cell volume =    300.95318 a.u.^3 (    44.59666 Ang^3 )
     density =      3.32103 g/cm^3

CELL_PARAMETERS (alat=  6.25310370)
   0.972214536  -0.000000000  -0.000000000
  -0.486107268   0.841962486  -0.000000000
  -0.000000000  -0.000000000   1.503686123

ATOMIC_POSITIONS (crystal)
Sc            0.0000000000        0.0000000000        0.0000000000
Sc            0.6666666667        0.3333333333        0.5000000000
End final coordinates

     Writing config-only to output data dir sc_vcrelax.out/scandium.save/

     Final scf calculation at the relaxed structure.
     The G-vectors are recalculated for the final unit cell
     Results may differ from those at the preceding step.

     Using Slab Decomposition

     bravais-lattice index     =            4
     lattice parameter (alat)  =       6.2531  a.u.
     unit-cell volume          =     300.9532 (a.u.)^3
     number of atoms/cell      =            2
     number of atomic types    =            1
     number of electrons       =        22.00
     number of Kohn-Sham states=           15
     kinetic-energy cutoff     =      60.0000  Ry
     charge density cutoff     =     360.0000  Ry
     scf convergence threshold =      1.0E-10
     mixing beta               =       0.7000
     number of iterations used =            8  plain     mixing
     press convergence thresh. =      5.0E-01
     Exchange-correlation= SLA  PZ   NOGX NOGC
                           (   1   1   0   0   0   0   0)

     celldm(1)=   6.253104  celldm(2)=   0.000000  celldm(3)=   1.594000
     celldm(4)=   0.000000  celldm(5)=   0.000000  celldm(6)=   0.000000

     crystal axes: (cart. coord. in units of alat)
               a(1) = (   0.972215  -0.000000  -0.000000 )
               a(2) = (  -0.486107   0.841962  -0.000000 )
               a(3) = (  -0.000000  -0.000000   1.503686 )

     reciprocal axes: (cart. coord. in units 2 pi/alat)
               b(1) = (  1.028580  0.593851  0.000000 )
               b(2) = (  0.000000  1.187701  0.000000 )
               b(3) = (  0.000000  0.000000  0.665032 )

     PseudoPot. # 1 for Sc read from file:
     ../../../Sc.pz-spn-kjpaw_psl.1.0.0.UPF
     MD5 check sum: 1f9095df0bb42a6568b4e9f256ff075f
     Pseudo is Projector augmented-wave + core cor, Zval = 11.0
     Generated using 'atomic' code by A. Dal Corso  v.7.1
     Shape of augmentation charge: PSQ
     Using radial grid of 1173 points,  6 beta functions with:
                l(1) =   0
                l(2) =   0
                l(3) =   1
                l(4) =   1
                l(5) =   2
                l(6) =   2
     Q(r) pseudized with 0 coefficients

     atomic species   valence    mass     pseudopotential
        Sc            11.00    44.59600     Sc( 1.00)

     24 Sym. Ops., with inversion, found (12 have fractional translation)

   Cartesian axes

     site n.     atom                  positions (alat units)
         1           Sc  tau(   1) = (   0.0000000   0.0000000  -0.0000000  )
         2           Sc  tau(   2) = (   0.4861073   0.2806542   0.7518431  )

     number of k points=    95  Marzari-Vanderbilt smearing, width (Ry)=  0.0200
                       cart. coord. in units 2pi/alat
        k(    1) = (   0.0000000   0.0000000   0.0000000), wk =   0.0017361
        k(    2) = (   0.0000000   0.0000000   0.0831291), wk =   0.0034722
        k(    3) = (   0.0000000   0.0000000   0.1662581), wk =   0.0034722
        k(    4) = (   0.0000000   0.0000000   0.2493872), wk =   0.0034722
        k(    5) = (  -0.0000000  -0.0000000  -0.3325162), wk =   0.0017361
        k(    6) = (   0.0000000   0.0989751   0.0000000), wk =   0.0104167
        k(    7) = (   0.0000000   0.0989751   0.0831291), wk =   0.0208333
        k(    8) = (   0.0000000   0.0989751   0.1662581), wk =   0.0208333
        k(    9) = (   0.0000000   0.0989751   0.2493872), wk =   0.0208333
        k(   10) = (   0.0000000   0.0989751  -0.3325162), wk =   0.0104167
        k(   11) = (   0.0000000   0.1979502   0.0000000), wk =   0.0104167
        k(   12) = (   0.0000000   0.1979502   0.0831291), wk =   0.0208333
        k(   13) = (   0.0000000   0.1979502   0.1662581), wk =   0.0208333
        k(   14) = (   0.0000000   0.1979502   0.2493872), wk =   0.0208333
        k(   15) = (   0.0000000   0.1979502  -0.3325162), wk =   0.0104167
        k(   16) = (   0.0000000   0.2969253   0.0000000), wk =   0.0104167
        k(   17) = (   0.0000000   0.2969253   0.0831291), wk =   0.0208333
        k(   18) = (   0.0000000   0.2969253   0.1662581), wk =   0.0208333
        k(   19) = (   0.0000000   0.2969253   0.2493872), wk =   0.0208333
        k(   20) = (   0.0000000   0.2969253  -0.3325162), wk =   0.0104167
        k(   21) = (   0.0000000   0.3959005   0.0000000), wk =   0.0104167
        k(   22) = (   0.0000000   0.3959005   0.0831291), wk =   0.0208333
        k(   23) = (   0.0000000   0.3959005   0.1662581), wk =   0.0208333
        k(   24) = (   0.0000000   0.3959005   0.2493872), wk =   0.0208333
        k(   25) = (   0.0000000   0.3959005  -0.3325162), wk =   0.0104167
        k(   26) = (   0.0000000   0.4948756   0.0000000), wk =   0.0104167
        k(   27) = (   0.0000000   0.4948756   0.0831291), wk =   0.0208333
        k(   28) = (   0.0000000   0.4948756   0.1662581), wk =   0.0208333
        k(   29) = (   0.0000000   0.4948756   0.2493872), wk =   0.0208333
        k(   30) = (   0.0000000   0.4948756  -0.3325162), wk =   0.0104167
        k(   31) = (  -0.0000000  -0.5938507  -0.0000000), wk =   0.0052083
        k(   32) = (  -0.0000000  -0.5938507   0.0831291), wk =   0.0104167
        k(   33) = (  -0.0000000  -0.5938507   0.1662581), wk =   0.0104167
        k(   34) = (  -0.0000000  -0.5938507   0.2493872), wk =   0.0104167
        k(   35) = (  -0.0000000  -0.5938507  -0.3325162), wk =   0.0052083
        k(   36) = (   0.0857150   0.1484627   0.0000000), wk =   0.0104167
        k(   37) = (   0.0857150   0.1484627   0.0831291), wk =   0.0208333
        k(   38) = (   0.0857150   0.1484627   0.1662581), wk =   0.0208333
        k(   39) = (   0.0857150   0.1484627   0.2493872), wk =   0.0208333
        k(   40) = (   0.0857150   0.1484627  -0.3325162), wk =   0.0104167
        k(   41) = (   0.0857150   0.2474378   0.0000000), wk =   0.0208333
        k(   42) = (   0.0857150   0.2474378   0.0831291), wk =   0.0416667
        k(   43) = (   0.0857150   0.2474378   0.1662581), wk =   0.0416667
        k(   44) = (   0.0857150   0.2474378   0.2493872), wk =   0.0416667
        k(   45) = (   0.0857150   0.2474378  -0.3325162), wk =   0.0208333
        k(   46) = (   0.0857150   0.3464129   0.0000000), wk =   0.0208333
        k(   47) = (   0.0857150   0.3464129   0.0831291), wk =   0.0416667
        k(   48) = (   0.0857150   0.3464129   0.1662581), wk =   0.0416667
        k(   49) = (   0.0857150   0.3464129   0.2493872), wk =   0.0416667
        k(   50) = (   0.0857150   0.3464129  -0.3325162), wk =   0.0208333
        k(   51) = (   0.0857150   0.4453880   0.0000000), wk =   0.0208333
        k(   52) = (   0.0857150   0.4453880   0.0831291), wk =   0.0416667
        k(   53) = (   0.0857150   0.4453880   0.1662581), wk =   0.0416667
        k(   54) = (   0.0857150   0.4453880   0.2493872), wk =   0.0416667
        k(   55) = (   0.0857150   0.4453880  -0.3325162), wk =   0.0208333
        k(   56) = (   0.0857150   0.5443631   0.0000000), wk =   0.0208333
        k(   57) = (   0.0857150   0.5443631   0.0831291), wk =   0.0416667
        k(   58) = (   0.0857150   0.5443631   0.1662581), wk =   0.0416667
        k(   59) = (   0.0857150   0.5443631   0.2493872), wk =   0.0416667
        k(   60) = (   0.0857150   0.5443631  -0.3325162), wk =   0.0208333
[...]
        k(   81) = (   0.2571449   0.4453880   0.0000000), wk =   0.0104167
        k(   82) = (   0.2571449   0.4453880   0.0831291), wk =   0.0208333
        k(   83) = (   0.2571449   0.4453880   0.1662581), wk =   0.0208333
        k(   84) = (   0.2571449   0.4453880   0.2493872), wk =   0.0208333
        k(   85) = (   0.2571449   0.4453880  -0.3325162), wk =   0.0104167
        k(   86) = (   0.2571449   0.5443631   0.0000000), wk =   0.0208333
        k(   87) = (   0.2571449   0.5443631   0.0831291), wk =   0.0416667
        k(   88) = (   0.2571449   0.5443631   0.1662581), wk =   0.0416667
        k(   89) = (   0.2571449   0.5443631   0.2493872), wk =   0.0416667
        k(   90) = (   0.2571449   0.5443631  -0.3325162), wk =   0.0208333
        k(   91) = (   0.3428599   0.5938507   0.0000000), wk =   0.0034722
        k(   92) = (   0.3428599   0.5938507   0.0831291), wk =   0.0069444
        k(   93) = (   0.3428599   0.5938507   0.1662581), wk =   0.0069444
        k(   94) = (   0.3428599   0.5938507   0.2493872), wk =   0.0069444
        k(   95) = (   0.3428599   0.5938507  -0.3325162), wk =   0.0034722

     Check: negative core charge=   -0.000008

     Initial potential from superposition of free atoms

     starting charge      21.9956, renormalised to      22.0000
     Starting wfcs are   20 randomized atomic wfcs
     Checking if some PAW data can be deallocated...

     Self-consistent Calculation

[...]

     iteration #  5     ecut=    60.00 Ry     beta= 0.70
     Davidson diagonalization with overlap
     c_bands:  1 eigenvalues not converged
     ethr =  4.29E-07,  avg # of iterations =  6.0

[...]

     total energy              =    -306.87655327 Ry
     estimated scf accuracy    <          6.3E-10 Ry

     iteration # 27     ecut=    60.00 Ry     beta= 0.70
     Davidson diagonalization with overlap
     ethr =  2.88E-12,  avg # of iterations = 10.5

     End of self-consistent calculation

[...]

          k =-0.0000-0.5939-0.3325 (  2340 PWs)   bands (ev):

[...]

          k = 0.3429 0.5939-0.3325 (  2340 PWs)   bands (ev):

   -38.3993 -38.3993 -17.5933 -17.5933 -17.4358 -17.4358 -17.1927 -17.1927
     9.7038   9.7038   9.9618   9.9618  10.5279  10.5279  12.7339

     the Fermi energy is    10.1550 ev

!    total energy              =    -306.87655328 Ry
     total all-electron energy =     -3050.017324 Ry
     estimated scf accuracy    <          9.4E-11 Ry
     smearing contrib. (-TS)   =      -0.00079625 Ry
     internal energy E=F+TS    =    -306.87575703 Ry

     The total energy is F=E-TS. E is the sum of the following terms:
     one-electron contribution =     -67.02585483 Ry
     hartree contribution      =      39.94340351 Ry
     xc contribution           =     -34.68383063 Ry
     ewald contribution        =    -131.35171449 Ry
     one-center paw contrib.   =    -113.75776059 Ry

     convergence has been achieved in  27 iterations

     Forces acting on atoms (cartesian axes, Ry/au):

     atom    1 type  1   force =     0.00000000   -0.00000000   -0.00000000
     atom    2 type  1   force =    -0.00000000    0.00000000    0.00000000
     The non-local contrib.  to forces
     atom    1 type  1   force =     0.00000000   -0.00000000   -0.00000000
     atom    2 type  1   force =    -0.00000000    0.00000000    0.00000000
     The ionic contribution  to forces
     atom    1 type  1   force =     0.00000000   -0.00000000   -0.00000000
     atom    2 type  1   force =    -0.00000000    0.00000000    0.00000000
     The local contribution  to forces
     atom    1 type  1   force =     0.00000000    0.00000000    0.00000000
     atom    2 type  1   force =    -0.00000000    0.00000000    0.00000000
     The core correction contribution to forces
     atom    1 type  1   force =    -0.00000000   -0.00000000   -0.00000000
     atom    2 type  1   force =     0.00000000   -0.00000000   -0.00000000
     The Hubbard contrib.    to forces
     atom    1 type  1   force =     0.00000000    0.00000000    0.00000000
     atom    2 type  1   force =     0.00000000    0.00000000    0.00000000
     The SCF correction term to forces
     atom    1 type  1   force =     0.00000000   -0.00000000   -0.00000000
     atom    2 type  1   force =    -0.00000000    0.00000000    0.00000000

     Total force =     0.000000     Total SCF correction =     0.000000

     Computing stress (Cartesian axis) and pressure

          total   stress  (Ry/bohr**3)                   (kbar)     P=       -2.04
  -0.00001208   0.00000000  -0.00000000           -1.78        0.00       -0.00
  -0.00000000  -0.00001208  -0.00000000           -0.00       -1.78       -0.00
   0.00000000  -0.00000000  -0.00001746            0.00       -0.00       -2.57

     Writing all to output data dir sc_vcrelax.out/scandium.save/

     General routines

     Parallel routines

   This run was terminated on:  14:48:38  21Jul2023

   JOB DONE.