     Program PWSCF v.7.2 starts on 21Jul2023 at 15:29:57

     Waiting for input...
     Reading input from standard input

     Current dimensions of program PWSCF are:
     Max number of different atomic species (ntypx) = 10
     Max number of k-points (npk) = 120000
     Max angular momentum in pseudopotentials (lmaxx) =  4
     file Sc.pz-spn-kjpaw_psl.1.0.0.UPF: wavefunction(s)  3S 3P 3D renormalized

     R & G space division:  proc/nbgrp/npool/nimage =      20
     Subspace diagonalization in iterative solution of the eigenvalue problem:
     a serial algorithm will be used

     Using Slab Decomposition

     bravais-lattice index     =            4
     lattice parameter (alat)  =       6.2531  a.u.
     unit-cell volume          =     337.5249 (a.u.)^3
     number of atoms/cell      =            2
     number of atomic types    =            1
     number of electrons       =        22.00
     number of Kohn-Sham states=           15
     kinetic-energy cutoff     =      80.0000  Ry
     charge density cutoff     =     360.0000  Ry
     scf convergence threshold =      1.0E-08
     mixing beta               =       0.7000
     number of iterations used =            8  plain     mixing
     energy convergence thresh.=      1.0E-04
     force convergence thresh. =      1.0E-03
     press convergence thresh. =      5.0E-01
     Exchange-correlation= SLA  PZ   NOGX NOGC
                           (   1   1   0   0   0   0   0)
     nstep                     =           50

     celldm(1)=   6.253104  celldm(2)=   0.000000  celldm(3)=   1.594000
     celldm(4)=   0.000000  celldm(5)=   0.000000  celldm(6)=   0.000000

     crystal axes: (cart. coord. in units of alat)
               a(1) = (   1.000000   0.000000   0.000000 )
               a(2) = (  -0.500000   0.866025   0.000000 )
               a(3) = (   0.000000   0.000000   1.594000 )

     reciprocal axes: (cart. coord. in units 2 pi/alat)
               b(1) = (  1.000000  0.577350 -0.000000 )
               b(2) = (  0.000000  1.154701  0.000000 )
               b(3) = (  0.000000 -0.000000  0.627353 )

     PseudoPot. # 1 for Sc read from file:
     ../../../Sc.pz-spn-kjpaw_psl.1.0.0.UPF
     MD5 check sum: 1f9095df0bb42a6568b4e9f256ff075f
     Pseudo is Projector augmented-wave + core cor, Zval = 11.0
     Generated using 'atomic' code by A. Dal Corso  v.7.1
     Shape of augmentation charge: PSQ
     Using radial grid of 1173 points,  6 beta functions with:
                l(1) =   0
                l(2) =   0
                l(3) =   1
                l(4) =   1
                l(5) =   2
                l(6) =   2
     Q(r) pseudized with 0 coefficients

     atomic species   valence    mass     pseudopotential
        Sc            11.00    44.59600     Sc( 1.00)

     24 Sym. Ops., with inversion, found (12 have fractional translation)

   Cartesian axes

     site n.     atom                  positions (alat units)
         1           Sc  tau(   1) = (   0.0000000   0.0000000   0.0000000  )
         2           Sc  tau(   2) = (   0.5000000   0.2886751   0.7970000  )

     number of k points=    95  Marzari-Vanderbilt smearing, width (Ry)=  0.0200
                       cart. coord. in units 2pi/alat
        k(    1) = (   0.0000000   0.0000000   0.0000000), wk =   0.0017361
        k(    2) = (   0.0000000   0.0000000   0.0784191), wk =   0.0034722
        k(    3) = (   0.0000000   0.0000000   0.1568381), wk =   0.0034722
        k(    4) = (   0.0000000   0.0000000   0.2352572), wk =   0.0034722
        k(    5) = (   0.0000000   0.0000000  -0.3136763), wk =   0.0017361
        k(    6) = (   0.0000000   0.0962250   0.0000000), wk =   0.0104167
        k(    7) = (   0.0000000   0.0962250   0.0784191), wk =   0.0208333
        k(    8) = (   0.0000000   0.0962250   0.1568381), wk =   0.0208333
        k(    9) = (   0.0000000   0.0962250   0.2352572), wk =   0.0208333
        k(   10) = (   0.0000000   0.0962250  -0.3136763), wk =   0.0104167
        k(   11) = (   0.0000000   0.1924501   0.0000000), wk =   0.0104167
        k(   12) = (   0.0000000   0.1924501   0.0784191), wk =   0.0208333
        k(   13) = (   0.0000000   0.1924501   0.1568381), wk =   0.0208333
        k(   14) = (   0.0000000   0.1924501   0.2352572), wk =   0.0208333
        k(   15) = (   0.0000000   0.1924501  -0.3136763), wk =   0.0104167
        k(   16) = (   0.0000000   0.2886751   0.0000000), wk =   0.0104167
        k(   17) = (   0.0000000   0.2886751   0.0784191), wk =   0.0208333
        k(   18) = (   0.0000000   0.2886751   0.1568381), wk =   0.0208333
        k(   19) = (   0.0000000   0.2886751   0.2352572), wk =   0.0208333
        k(   20) = (   0.0000000   0.2886751  -0.3136763), wk =   0.0104167
        k(   21) = (   0.0000000   0.3849002   0.0000000), wk =   0.0104167
        k(   22) = (   0.0000000   0.3849002   0.0784191), wk =   0.0208333
        k(   23) = (   0.0000000   0.3849002   0.1568381), wk =   0.0208333
        k(   24) = (   0.0000000   0.3849002   0.2352572), wk =   0.0208333
        k(   25) = (   0.0000000   0.3849002  -0.3136763), wk =   0.0104167
        k(   26) = (   0.0000000   0.4811252   0.0000000), wk =   0.0104167
        k(   27) = (   0.0000000   0.4811252   0.0784191), wk =   0.0208333
        k(   28) = (   0.0000000   0.4811252   0.1568381), wk =   0.0208333
        k(   29) = (   0.0000000   0.4811252   0.2352572), wk =   0.0208333
        k(   30) = (   0.0000000   0.4811252  -0.3136763), wk =   0.0104167
        k(   31) = (   0.0000000  -0.5773503   0.0000000), wk =   0.0052083
        k(   32) = (   0.0000000  -0.5773503   0.0784191), wk =   0.0104167
        k(   33) = (   0.0000000  -0.5773503   0.1568381), wk =   0.0104167
        k(   34) = (   0.0000000  -0.5773503   0.2352572), wk =   0.0104167
        k(   35) = (   0.0000000  -0.5773503  -0.3136763), wk =   0.0052083
        k(   36) = (   0.0833333   0.1443376   0.0000000), wk =   0.0104167
        k(   37) = (   0.0833333   0.1443376   0.0784191), wk =   0.0208333
        k(   38) = (   0.0833333   0.1443376   0.1568381), wk =   0.0208333
        k(   39) = (   0.0833333   0.1443376   0.2352572), wk =   0.0208333
        k(   40) = (   0.0833333   0.1443376  -0.3136763), wk =   0.0104167
        k(   41) = (   0.0833333   0.2405626   0.0000000), wk =   0.0208333
        k(   42) = (   0.0833333   0.2405626   0.0784191), wk =   0.0416667
        k(   43) = (   0.0833333   0.2405626   0.1568381), wk =   0.0416667
        k(   44) = (   0.0833333   0.2405626   0.2352572), wk =   0.0416667
        k(   45) = (   0.0833333   0.2405626  -0.3136763), wk =   0.0208333
        k(   46) = (   0.0833333   0.3367877   0.0000000), wk =   0.0208333
        k(   47) = (   0.0833333   0.3367877   0.0784191), wk =   0.0416667
        k(   48) = (   0.0833333   0.3367877   0.1568381), wk =   0.0416667
        k(   49) = (   0.0833333   0.3367877   0.2352572), wk =   0.0416667
        k(   50) = (   0.0833333   0.3367877  -0.3136763), wk =   0.0208333
        k(   51) = (   0.0833333   0.4330127   0.0000000), wk =   0.0208333
        k(   52) = (   0.0833333   0.4330127   0.0784191), wk =   0.0416667
        k(   53) = (   0.0833333   0.4330127   0.1568381), wk =   0.0416667
        k(   54) = (   0.0833333   0.4330127   0.2352572), wk =   0.0416667
        k(   55) = (   0.0833333   0.4330127  -0.3136763), wk =   0.0208333
        k(   56) = (   0.0833333   0.5292377   0.0000000), wk =   0.0208333
        k(   57) = (   0.0833333   0.5292377   0.0784191), wk =   0.0416667
        k(   58) = (   0.0833333   0.5292377   0.1568381), wk =   0.0416667
        k(   59) = (   0.0833333   0.5292377   0.2352572), wk =   0.0416667
        k(   60) = (   0.0833333   0.5292377  -0.3136763), wk =   0.0208333
[...]
        k(   81) = (   0.2500000   0.4330127   0.0000000), wk =   0.0104167
        k(   82) = (   0.2500000   0.4330127   0.0784191), wk =   0.0208333
        k(   83) = (   0.2500000   0.4330127   0.1568381), wk =   0.0208333
        k(   84) = (   0.2500000   0.4330127   0.2352572), wk =   0.0208333
        k(   85) = (   0.2500000   0.4330127  -0.3136763), wk =   0.0104167
        k(   86) = (   0.2500000   0.5292377   0.0000000), wk =   0.0208333
        k(   87) = (   0.2500000   0.5292377   0.0784191), wk =   0.0416667
        k(   88) = (   0.2500000   0.5292377   0.1568381), wk =   0.0416667
        k(   89) = (   0.2500000   0.5292377   0.2352572), wk =   0.0416667
        k(   90) = (   0.2500000   0.5292377  -0.3136763), wk =   0.0208333
        k(   91) = (   0.3333333   0.5773503   0.0000000), wk =   0.0034722
        k(   92) = (   0.3333333   0.5773503   0.0784191), wk =   0.0069444
        k(   93) = (   0.3333333   0.5773503   0.1568381), wk =   0.0069444
        k(   94) = (   0.3333333   0.5773503   0.2352572), wk =   0.0069444
        k(   95) = (   0.3333333   0.5773503  -0.3136763), wk =   0.0034722

     Check: negative core charge=   -0.000008

     Initial potential from superposition of free atoms

     starting charge      21.9956, renormalised to      22.0000
     Starting wfcs are   20 randomized atomic wfcs
     Checking if some PAW data can be deallocated...

     Self-consistent Calculation

     iteration #  1     ecut=    80.00 Ry     beta= 0.70
     Davidson diagonalization with overlap
     ethr =  1.00E-02,  avg # of iterations =  2.2

     Threshold (ethr) on eigenvalues was too large:
     Diagonalizing with lowered threshold

     Davidson diagonalization with overlap
     c_bands:  1 eigenvalues not converged
     c_bands:  2 eigenvalues not converged
     c_bands:  2 eigenvalues not converged
     c_bands:  1 eigenvalues not converged
     c_bands:  1 eigenvalues not converged
     c_bands:  1 eigenvalues not converged
     c_bands:  1 eigenvalues not converged
     c_bands:  4 eigenvalues not converged
     c_bands:  4 eigenvalues not converged
     c_bands:  1 eigenvalues not converged
     c_bands:  1 eigenvalues not converged
     c_bands:  4 eigenvalues not converged
     c_bands:  4 eigenvalues not converged
     c_bands:  3 eigenvalues not converged
     c_bands:  3 eigenvalues not converged
     c_bands:  2 eigenvalues not converged
     c_bands:  1 eigenvalues not converged
     c_bands:  3 eigenvalues not converged
     c_bands:  3 eigenvalues not converged
     c_bands:  5 eigenvalues not converged
     c_bands:  5 eigenvalues not converged
     c_bands:  1 eigenvalues not converged
     c_bands:  4 eigenvalues not converged
     c_bands:  5 eigenvalues not converged
     c_bands:  3 eigenvalues not converged
     ethr =  1.90E-05,  avg # of iterations = 17.5

     total energy              =    -306.86691210 Ry
     estimated scf accuracy    <       0.02019885 Ry

[...]

     iteration #  3     ecut=    80.00 Ry     beta= 0.70
     Davidson diagonalization with overlap
     c_bands:  1 eigenvalues not converged
     ethr =  6.85E-06,  avg # of iterations =  8.3

[...]

     End of self-consistent calculation

          k = 0.0000 0.0000 0.0000 (  4055 PWs)   bands (ev):

   -40.1393 -40.0750 -19.2243 -18.8907 -18.8907 -18.8324 -18.8324 -18.8153
[...]
     The core correction contribution to forces
     atom    1 type  1   force =    -0.00000000   -0.00000000    0.00000000
     atom    2 type  1   force =     0.00000000   -0.00000000    0.00000000
     The Hubbard contrib.    to forces
     atom    1 type  1   force =     0.00000000    0.00000000    0.00000000
     atom    2 type  1   force =     0.00000000    0.00000000    0.00000000
     The SCF correction term to forces
     atom    1 type  1   force =    -0.00000000    0.00000000    0.00000000
     atom    2 type  1   force =    -0.00000000   -0.00000000    0.00000000

     Total force =     0.000000     Total SCF correction =     0.000000

     Computing stress (Cartesian axis) and pressure

          total   stress  (Ry/bohr**3)                   (kbar)     P=      -55.49
  -0.00033696   0.00000000   0.00000000          -49.57        0.00        0.00
   0.00000000  -0.00033696   0.00000000            0.00      -49.57        0.00
   0.00000000   0.00000000  -0.00045770            0.00        0.00      -67.33

     BFGS Geometry Optimization
     Energy error            =      0.0E+00 Ry
     Gradient error          =      1.6E-27 Ry/Bohr
     Cell gradient error     =      6.7E+01 kbar

     number of scf cycles    =   1
     number of bfgs steps    =   0

     enthalpy           new  =    -306.8732273592 Ry

     new trust radius        =       0.0420436657 bohr
     new conv_thr            =       0.0000000100 Ry

     new unit-cell volume =    328.06492 a.u.^3 (    48.61420 Ang^3 )
     density =      3.04657 g/cm^3

CELL_PARAMETERS (alat=  6.25310370)
   0.991575954   0.000000000   0.000000000
  -0.495787977   0.858729966   0.000000000
   0.000000000   0.000000000   1.575760792

ATOMIC_POSITIONS (crystal)
Sc            0.0000000000        0.0000000000       -0.0000000000
Sc            0.6666666667        0.3333333333        0.5000000000

     Writing config-only to output data dir sc_vcrelax.out/scandium.save/
     NEW-OLD atomic charge density approx. for the potential

     Check: negative core charge=   -0.000009
     extrapolated charge   21.36574, renormalised to   22.00000

[...]

          k =-0.0000 0.0000-0.3173 (  4060 PWs)   bands (ev):

[...]

     Energy error            =      3.2E-03 Ry
     Gradient error          =      1.9E-27 Ry/Bohr
     Cell gradient error     =      5.4E+01 kbar

[...]

     enthalpy           old  =    -306.8732273592 Ry
     enthalpy           new  =    -306.8764366138 Ry

     CASE: enthalpy          _new < enthalpy          _old

[...]

     number of scf cycles    =   8
     number of bfgs steps    =   7

     enthalpy           old  =    -306.8805120965 Ry
     enthalpy           new  =    -306.8805219577 Ry

     CASE: enthalpy          _new < enthalpy          _old

     new trust radius        =       0.0015154767 bohr
     new conv_thr            =            1.0E-10 Ry

     new unit-cell volume =    303.53122 a.u.^3 (    44.97869 Ang^3 )
     density =      3.29282 g/cm^3

[...]

ATOMIC_POSITIONS (crystal)
Sc            0.0000000000        0.0000000000        0.0000000000
Sc            0.6666666667        0.3333333333        0.5000000000

     Writing config-only to output data dir sc_vcrelax.out/scandium.save/
     NEW-OLD atomic charge density approx. for the potential

     Check: negative core charge=   -0.000012
     extrapolated charge   21.98366, renormalised to   22.00000

[...]

     Threshold (ethr) on eigenvalues was too large:
     Diagonalizing with lowered threshold

     Davidson diagonalization with overlap
     ethr =  5.45E-08,  avg # of iterations =  5.0

[...]

     Energy error            =      6.1E-07 Ry
     Gradient error          =      1.1E-27 Ry/Bohr
     Cell gradient error     =      2.1E-01 kbar

     bfgs converged in   9 scf cycles and   8 bfgs steps
     (criteria: energy <  1.0E-04 Ry, force <  1.0E-03 Ry/Bohr, cell <  5.0E-01 kbar)

     End of BFGS Geometry Optimization

     Final enthalpy           =    -306.8805225697 Ry

     File sc_vcrelax.out/scandium.bfgs deleted, as requested
Begin final coordinates
     new unit-cell volume =    303.53122 a.u.^3 (    44.97869 Ang^3 )
     density =      3.29282 g/cm^3

CELL_PARAMETERS (alat=  6.25310370)
   0.975254372  -0.000000000   0.000000000
  -0.487627186   0.844595061  -0.000000000
  -0.000000000  -0.000000000   1.507127631

ATOMIC_POSITIONS (crystal)
Sc            0.0000000000        0.0000000000        0.0000000000
Sc            0.6666666667        0.3333333333        0.5000000000
End final coordinates

     Writing config-only to output data dir sc_vcrelax.out/scandium.save/

     Final scf calculation at the relaxed structure.
     The G-vectors are recalculated for the final unit cell
     Results may differ from those at the preceding step.

     Using Slab Decomposition

     bravais-lattice index     =            4
     lattice parameter (alat)  =       6.2531  a.u.
     unit-cell volume          =     303.5312 (a.u.)^3
     number of atoms/cell      =            2
     number of atomic types    =            1
     number of electrons       =        22.00
     number of Kohn-Sham states=           15
     kinetic-energy cutoff     =      80.0000  Ry
     charge density cutoff     =     360.0000  Ry
     scf convergence threshold =      1.0E-10
     mixing beta               =       0.7000
     number of iterations used =            8  plain     mixing
     press convergence thresh. =      5.0E-01
     Exchange-correlation= SLA  PZ   NOGX NOGC
                           (   1   1   0   0   0   0   0)

     celldm(1)=   6.253104  celldm(2)=   0.000000  celldm(3)=   1.594000
     celldm(4)=   0.000000  celldm(5)=   0.000000  celldm(6)=   0.000000

     crystal axes: (cart. coord. in units of alat)
               a(1) = (   0.975254  -0.000000   0.000000 )
               a(2) = (  -0.487627   0.844595  -0.000000 )
               a(3) = (  -0.000000  -0.000000   1.507128 )

     reciprocal axes: (cart. coord. in units 2 pi/alat)
               b(1) = (  1.025374  0.592000  0.000000 )
               b(2) = (  0.000000  1.183999  0.000000 )
               b(3) = ( -0.000000  0.000000  0.663514 )

     PseudoPot. # 1 for Sc read from file:
     ../../../Sc.pz-spn-kjpaw_psl.1.0.0.UPF
     MD5 check sum: 1f9095df0bb42a6568b4e9f256ff075f
     Pseudo is Projector augmented-wave + core cor, Zval = 11.0
     Generated using 'atomic' code by A. Dal Corso  v.7.1
     Shape of augmentation charge: PSQ
     Using radial grid of 1173 points,  6 beta functions with:
                l(1) =   0
                l(2) =   0
                l(3) =   1
                l(4) =   1
                l(5) =   2
                l(6) =   2
     Q(r) pseudized with 0 coefficients

     atomic species   valence    mass     pseudopotential
        Sc            11.00    44.59600     Sc( 1.00)

     24 Sym. Ops., with inversion, found (12 have fractional translation)

   Cartesian axes

     site n.     atom                  positions (alat units)
         1           Sc  tau(   1) = (   0.0000000   0.0000000  -0.0000000  )
         2           Sc  tau(   2) = (   0.4876272   0.2815317   0.7535638  )

     number of k points=    95  Marzari-Vanderbilt smearing, width (Ry)=  0.0200
                       cart. coord. in units 2pi/alat
        k(    1) = (   0.0000000   0.0000000   0.0000000), wk =   0.0017361
        k(    2) = (  -0.0000000   0.0000000   0.0829392), wk =   0.0034722
        k(    3) = (  -0.0000000   0.0000000   0.1658785), wk =   0.0034722
        k(    4) = (  -0.0000000   0.0000000   0.2488177), wk =   0.0034722
        k(    5) = (   0.0000000  -0.0000000  -0.3317569), wk =   0.0017361
        k(    6) = (   0.0000000   0.0986666   0.0000000), wk =   0.0104167
        k(    7) = (   0.0000000   0.0986666   0.0829392), wk =   0.0208333
        k(    8) = (   0.0000000   0.0986666   0.1658785), wk =   0.0208333
        k(    9) = (   0.0000000   0.0986666   0.2488177), wk =   0.0208333
        k(   10) = (   0.0000000   0.0986666  -0.3317569), wk =   0.0104167
        k(   11) = (   0.0000000   0.1973332   0.0000000), wk =   0.0104167
        k(   12) = (   0.0000000   0.1973332   0.0829392), wk =   0.0208333
        k(   13) = (   0.0000000   0.1973332   0.1658785), wk =   0.0208333
        k(   14) = (   0.0000000   0.1973332   0.2488177), wk =   0.0208333
        k(   15) = (   0.0000000   0.1973332  -0.3317569), wk =   0.0104167
        k(   16) = (   0.0000000   0.2959998   0.0000000), wk =   0.0104167
        k(   17) = (   0.0000000   0.2959998   0.0829392), wk =   0.0208333
        k(   18) = (   0.0000000   0.2959998   0.1658785), wk =   0.0208333
        k(   19) = (   0.0000000   0.2959998   0.2488177), wk =   0.0208333
        k(   20) = (   0.0000000   0.2959998  -0.3317569), wk =   0.0104167
        k(   21) = (   0.0000000   0.3946664   0.0000000), wk =   0.0104167
        k(   22) = (   0.0000000   0.3946664   0.0829392), wk =   0.0208333
        k(   23) = (   0.0000000   0.3946664   0.1658785), wk =   0.0208333
        k(   24) = (   0.0000000   0.3946664   0.2488177), wk =   0.0208333
        k(   25) = (   0.0000000   0.3946664  -0.3317569), wk =   0.0104167
        k(   26) = (   0.0000000   0.4933331   0.0000000), wk =   0.0104167
        k(   27) = (   0.0000000   0.4933331   0.0829392), wk =   0.0208333
        k(   28) = (   0.0000000   0.4933331   0.1658785), wk =   0.0208333
        k(   29) = (   0.0000000   0.4933331   0.2488177), wk =   0.0208333
        k(   30) = (   0.0000000   0.4933331  -0.3317569), wk =   0.0104167
        k(   31) = (  -0.0000000  -0.5919997  -0.0000000), wk =   0.0052083
        k(   32) = (  -0.0000000  -0.5919997   0.0829392), wk =   0.0104167
        k(   33) = (  -0.0000000  -0.5919997   0.1658785), wk =   0.0104167
        k(   34) = (  -0.0000000  -0.5919997   0.2488177), wk =   0.0104167
        k(   35) = (  -0.0000000  -0.5919997  -0.3317569), wk =   0.0052083
        k(   36) = (   0.0854478   0.1479999   0.0000000), wk =   0.0104167
        k(   37) = (   0.0854478   0.1479999   0.0829392), wk =   0.0208333
        k(   38) = (   0.0854478   0.1479999   0.1658785), wk =   0.0208333
        k(   39) = (   0.0854478   0.1479999   0.2488177), wk =   0.0208333
        k(   40) = (   0.0854478   0.1479999  -0.3317569), wk =   0.0104167
        k(   41) = (   0.0854478   0.2466665   0.0000000), wk =   0.0208333
        k(   42) = (   0.0854478   0.2466665   0.0829392), wk =   0.0416667
        k(   43) = (   0.0854478   0.2466665   0.1658785), wk =   0.0416667
        k(   44) = (   0.0854478   0.2466665   0.2488177), wk =   0.0416667
        k(   45) = (   0.0854478   0.2466665  -0.3317569), wk =   0.0208333
        k(   46) = (   0.0854478   0.3453331   0.0000000), wk =   0.0208333
        k(   47) = (   0.0854478   0.3453331   0.0829392), wk =   0.0416667
        k(   48) = (   0.0854478   0.3453331   0.1658785), wk =   0.0416667
        k(   49) = (   0.0854478   0.3453331   0.2488177), wk =   0.0416667
        k(   50) = (   0.0854478   0.3453331  -0.3317569), wk =   0.0208333
        k(   51) = (   0.0854478   0.4439998   0.0000000), wk =   0.0208333
        k(   52) = (   0.0854478   0.4439998   0.0829392), wk =   0.0416667
        k(   53) = (   0.0854478   0.4439998   0.1658785), wk =   0.0416667
        k(   54) = (   0.0854478   0.4439998   0.2488177), wk =   0.0416667
        k(   55) = (   0.0854478   0.4439998  -0.3317569), wk =   0.0208333
        k(   56) = (   0.0854478   0.5426664   0.0000000), wk =   0.0208333
        k(   57) = (   0.0854478   0.5426664   0.0829392), wk =   0.0416667
        k(   58) = (   0.0854478   0.5426664   0.1658785), wk =   0.0416667
        k(   59) = (   0.0854478   0.5426664   0.2488177), wk =   0.0416667
        k(   60) = (   0.0854478   0.5426664  -0.3317569), wk =   0.0208333
[...]
        k(   81) = (   0.2563434   0.4439998   0.0000000), wk =   0.0104167
        k(   82) = (   0.2563434   0.4439998   0.0829392), wk =   0.0208333
        k(   83) = (   0.2563434   0.4439998   0.1658785), wk =   0.0208333
        k(   84) = (   0.2563434   0.4439998   0.2488177), wk =   0.0208333
        k(   85) = (   0.2563434   0.4439998  -0.3317569), wk =   0.0104167
        k(   86) = (   0.2563434   0.5426664   0.0000000), wk =   0.0208333
        k(   87) = (   0.2563434   0.5426664   0.0829392), wk =   0.0416667
        k(   88) = (   0.2563434   0.5426664   0.1658785), wk =   0.0416667
        k(   89) = (   0.2563434   0.5426664   0.2488177), wk =   0.0416667
        k(   90) = (   0.2563434   0.5426664  -0.3317569), wk =   0.0208333
        k(   91) = (   0.3417912   0.5919997   0.0000000), wk =   0.0034722
        k(   92) = (   0.3417912   0.5919997   0.0829392), wk =   0.0069444
        k(   93) = (   0.3417912   0.5919997   0.1658785), wk =   0.0069444
        k(   94) = (   0.3417912   0.5919997   0.2488177), wk =   0.0069444
        k(   95) = (   0.3417912   0.5919997  -0.3317569), wk =   0.0034722

     Check: negative core charge=   -0.000008

     Initial potential from superposition of free atoms

     starting charge      21.9956, renormalised to      22.0000
     Starting wfcs are   20 randomized atomic wfcs
     Checking if some PAW data can be deallocated...

     Self-consistent Calculation

[...]

     iteration # 11     ecut=    80.00 Ry     beta= 0.70
     Davidson diagonalization with overlap
     c_bands:  2 eigenvalues not converged
     ethr =  3.12E-10,  avg # of iterations =  7.5

[...]

     total energy              =    -306.88040896 Ry
     estimated scf accuracy    <          1.1E-10 Ry

     iteration # 28     ecut=    80.00 Ry     beta= 0.70
     Davidson diagonalization with overlap
     ethr =  5.21E-13,  avg # of iterations =  2.5

     End of self-consistent calculation

[...]

          k =-0.0000-0.5920-0.3318 (  3664 PWs)   bands (ev):

[...]

          k = 0.3418 0.5920-0.3318 (  3660 PWs)   bands (ev):

   -38.5276 -38.5276 -17.7132 -17.7132 -17.5594 -17.5594 -17.3228 -17.3228
     9.5978   9.5978   9.8529   9.8529  10.4091  10.4091  12.6044

     the Fermi energy is    10.0440 ev

!    total energy              =    -306.88040896 Ry
     total all-electron energy =     -3050.021180 Ry
     estimated scf accuracy    <          2.5E-11 Ry
     smearing contrib. (-TS)   =      -0.00077238 Ry
     internal energy E=F+TS    =    -306.87963658 Ry

     The total energy is F=E-TS. E is the sum of the following terms:
     one-electron contribution =     -67.60118962 Ry
     hartree contribution      =      40.12562783 Ry
     xc contribution           =     -34.67061204 Ry
     ewald contribution        =    -130.97720833 Ry
     one-center paw contrib.   =    -113.75625442 Ry

     convergence has been achieved in  28 iterations

     Forces acting on atoms (cartesian axes, Ry/au):

     atom    1 type  1   force =    -0.00000000   -0.00000000   -0.00000000
     atom    2 type  1   force =     0.00000000    0.00000000    0.00000000
     The non-local contrib.  to forces
     atom    1 type  1   force =     0.00000000    0.00000000    0.00000000
     atom    2 type  1   force =    -0.00000000    0.00000000   -0.00000000
     The ionic contribution  to forces
     atom    1 type  1   force =     0.00000000   -0.00000000    0.00000000
     atom    2 type  1   force =    -0.00000000    0.00000000   -0.00000000
     The local contribution  to forces
     atom    1 type  1   force =     0.00000000    0.00000000    0.00000000
     atom    2 type  1   force =    -0.00000000    0.00000000   -0.00000000
     The core correction contribution to forces
     atom    1 type  1   force =    -0.00000000   -0.00000000    0.00000000
     atom    2 type  1   force =     0.00000000   -0.00000000    0.00000000
     The Hubbard contrib.    to forces
     atom    1 type  1   force =     0.00000000    0.00000000    0.00000000
     atom    2 type  1   force =     0.00000000    0.00000000    0.00000000
     The SCF correction term to forces
     atom    1 type  1   force =     0.00000000    0.00000000   -0.00000000
     atom    2 type  1   force =    -0.00000000   -0.00000000    0.00000000

     Total force =     0.000000     Total SCF correction =     0.000000

     Computing stress (Cartesian axis) and pressure

          total   stress  (Ry/bohr**3)                   (kbar)     P=       -0.45
  -0.00000315  -0.00000000  -0.00000000           -0.46       -0.00       -0.00
  -0.00000000  -0.00000315  -0.00000000           -0.00       -0.46       -0.00
  -0.00000000  -0.00000000  -0.00000293           -0.00       -0.00       -0.43

     Writing all to output data dir sc_vcrelax.out/scandium.save/

     General routines

     Parallel routines

   This run was terminated on:  17:26:12  21Jul2023

   JOB DONE.