     Program PWSCF v.7.2 starts on 16Jun2023 at 16:22:57

     Waiting for input...
     Reading input from standard input

     Current dimensions of program PWSCF are:
     Max number of different atomic species (ntypx) = 10
     Max number of k-points (npk) = 120000
     Max angular momentum in pseudopotentials (lmaxx) =  4
     file Sc.pz-spn-kjpaw_psl.1.0.0.UPF: wavefunction(s)  3S 3P 3D renormalized

     Subspace diagonalization in iterative solution of the eigenvalue problem:
     a serial algorithm will be used

     Using Slab Decomposition

     bravais-lattice index     =            4
     lattice parameter (alat)  =       6.2531  a.u.
     unit-cell volume          =     337.5249 (a.u.)^3
     number of atoms/cell      =            2
     number of atomic types    =            1
     number of electrons       =        22.00
     number of Kohn-Sham states=           15
     kinetic-energy cutoff     =      70.0000  Ry
     charge density cutoff     =     280.0000  Ry
     scf convergence threshold =      1.0E-08
     mixing beta               =       0.7000
     number of iterations used =            8  plain     mixing
     energy convergence thresh.=      1.0E-04
     force convergence thresh. =      1.0E-03
     press convergence thresh. =      5.0E-01
     Exchange-correlation= SLA  PZ   NOGX NOGC
                           (   1   1   0   0   0   0   0)
     nstep                     =           50

     celldm(1)=   6.253104  celldm(2)=   0.000000  celldm(3)=   1.594000
     celldm(4)=   0.000000  celldm(5)=   0.000000  celldm(6)=   0.000000

     crystal axes: (cart. coord. in units of alat)
               a(1) = (   1.000000   0.000000   0.000000 )
               a(2) = (  -0.500000   0.866025   0.000000 )
               a(3) = (   0.000000   0.000000   1.594000 )

     reciprocal axes: (cart. coord. in units 2 pi/alat)
               b(1) = (  1.000000  0.577350 -0.000000 )
               b(2) = (  0.000000  1.154701  0.000000 )
               b(3) = (  0.000000 -0.000000  0.627353 )

     PseudoPot. # 1 for Sc read from file:
     ../../../Sc.pz-spn-kjpaw_psl.1.0.0.UPF
     MD5 check sum: 1f9095df0bb42a6568b4e9f256ff075f
     Pseudo is Projector augmented-wave + core cor, Zval = 11.0
     Generated using 'atomic' code by A. Dal Corso  v.7.1
     Shape of augmentation charge: PSQ
     Using radial grid of 1173 points,  6 beta functions with:
                l(1) =   0
                l(2) =   0
                l(3) =   1
                l(4) =   1
                l(5) =   2
                l(6) =   2
     Q(r) pseudized with 0 coefficients

     atomic species   valence    mass     pseudopotential
        Sc            11.00    44.59600     Sc( 1.00)

     24 Sym. Ops., with inversion, found (12 have fractional translation)

   Cartesian axes

     site n.     atom                  positions (alat units)
         1           Sc  tau(   1) = (   0.0000000   0.0000000   0.0000000  )
         2           Sc  tau(   2) = (   0.5000000   0.2886751   0.7970000  )

     number of k points=    95  Marzari-Vanderbilt smearing, width (Ry)=  0.0200
                       cart. coord. in units 2pi/alat
        k(    1) = (   0.0000000   0.0000000   0.0000000), wk =   0.0017361
        k(    2) = (   0.0000000   0.0000000   0.0784191), wk =   0.0034722
        k(    3) = (   0.0000000   0.0000000   0.1568381), wk =   0.0034722
        k(    4) = (   0.0000000   0.0000000   0.2352572), wk =   0.0034722
        k(    5) = (   0.0000000   0.0000000  -0.3136763), wk =   0.0017361
        k(    6) = (   0.0000000   0.0962250   0.0000000), wk =   0.0104167
        k(    7) = (   0.0000000   0.0962250   0.0784191), wk =   0.0208333
        k(    8) = (   0.0000000   0.0962250   0.1568381), wk =   0.0208333
        k(    9) = (   0.0000000   0.0962250   0.2352572), wk =   0.0208333
        k(   10) = (   0.0000000   0.0962250  -0.3136763), wk =   0.0104167
        k(   11) = (   0.0000000   0.1924501   0.0000000), wk =   0.0104167
        k(   12) = (   0.0000000   0.1924501   0.0784191), wk =   0.0208333
        k(   13) = (   0.0000000   0.1924501   0.1568381), wk =   0.0208333
        k(   14) = (   0.0000000   0.1924501   0.2352572), wk =   0.0208333
        k(   15) = (   0.0000000   0.1924501  -0.3136763), wk =   0.0104167
        k(   16) = (   0.0000000   0.2886751   0.0000000), wk =   0.0104167
        k(   17) = (   0.0000000   0.2886751   0.0784191), wk =   0.0208333
        k(   18) = (   0.0000000   0.2886751   0.1568381), wk =   0.0208333
        k(   19) = (   0.0000000   0.2886751   0.2352572), wk =   0.0208333
        k(   20) = (   0.0000000   0.2886751  -0.3136763), wk =   0.0104167
        k(   21) = (   0.0000000   0.3849002   0.0000000), wk =   0.0104167
        k(   22) = (   0.0000000   0.3849002   0.0784191), wk =   0.0208333
        k(   23) = (   0.0000000   0.3849002   0.1568381), wk =   0.0208333
        k(   24) = (   0.0000000   0.3849002   0.2352572), wk =   0.0208333
        k(   25) = (   0.0000000   0.3849002  -0.3136763), wk =   0.0104167
        k(   26) = (   0.0000000   0.4811252   0.0000000), wk =   0.0104167
        k(   27) = (   0.0000000   0.4811252   0.0784191), wk =   0.0208333
        k(   28) = (   0.0000000   0.4811252   0.1568381), wk =   0.0208333
        k(   29) = (   0.0000000   0.4811252   0.2352572), wk =   0.0208333
        k(   30) = (   0.0000000   0.4811252  -0.3136763), wk =   0.0104167
        k(   31) = (   0.0000000  -0.5773503   0.0000000), wk =   0.0052083
        k(   32) = (   0.0000000  -0.5773503   0.0784191), wk =   0.0104167
        k(   33) = (   0.0000000  -0.5773503   0.1568381), wk =   0.0104167
        k(   34) = (   0.0000000  -0.5773503   0.2352572), wk =   0.0104167
        k(   35) = (   0.0000000  -0.5773503  -0.3136763), wk =   0.0052083
        k(   36) = (   0.0833333   0.1443376   0.0000000), wk =   0.0104167
        k(   37) = (   0.0833333   0.1443376   0.0784191), wk =   0.0208333
        k(   38) = (   0.0833333   0.1443376   0.1568381), wk =   0.0208333
        k(   39) = (   0.0833333   0.1443376   0.2352572), wk =   0.0208333
        k(   40) = (   0.0833333   0.1443376  -0.3136763), wk =   0.0104167
        k(   41) = (   0.0833333   0.2405626   0.0000000), wk =   0.0208333
        k(   42) = (   0.0833333   0.2405626   0.0784191), wk =   0.0416667
        k(   43) = (   0.0833333   0.2405626   0.1568381), wk =   0.0416667
        k(   44) = (   0.0833333   0.2405626   0.2352572), wk =   0.0416667
        k(   45) = (   0.0833333   0.2405626  -0.3136763), wk =   0.0208333
        k(   46) = (   0.0833333   0.3367877   0.0000000), wk =   0.0208333
        k(   47) = (   0.0833333   0.3367877   0.0784191), wk =   0.0416667
        k(   48) = (   0.0833333   0.3367877   0.1568381), wk =   0.0416667
        k(   49) = (   0.0833333   0.3367877   0.2352572), wk =   0.0416667
        k(   50) = (   0.0833333   0.3367877  -0.3136763), wk =   0.0208333
        k(   51) = (   0.0833333   0.4330127   0.0000000), wk =   0.0208333
        k(   52) = (   0.0833333   0.4330127   0.0784191), wk =   0.0416667
        k(   53) = (   0.0833333   0.4330127   0.1568381), wk =   0.0416667
        k(   54) = (   0.0833333   0.4330127   0.2352572), wk =   0.0416667
        k(   55) = (   0.0833333   0.4330127  -0.3136763), wk =   0.0208333
        k(   56) = (   0.0833333   0.5292377   0.0000000), wk =   0.0208333
        k(   57) = (   0.0833333   0.5292377   0.0784191), wk =   0.0416667
        k(   58) = (   0.0833333   0.5292377   0.1568381), wk =   0.0416667
        k(   59) = (   0.0833333   0.5292377   0.2352572), wk =   0.0416667
        k(   60) = (   0.0833333   0.5292377  -0.3136763), wk =   0.0208333
[...]
        k(   81) = (   0.2500000   0.4330127   0.0000000), wk =   0.0104167
        k(   82) = (   0.2500000   0.4330127   0.0784191), wk =   0.0208333
        k(   83) = (   0.2500000   0.4330127   0.1568381), wk =   0.0208333
        k(   84) = (   0.2500000   0.4330127   0.2352572), wk =   0.0208333
        k(   85) = (   0.2500000   0.4330127  -0.3136763), wk =   0.0104167
        k(   86) = (   0.2500000   0.5292377   0.0000000), wk =   0.0208333
        k(   87) = (   0.2500000   0.5292377   0.0784191), wk =   0.0416667
        k(   88) = (   0.2500000   0.5292377   0.1568381), wk =   0.0416667
        k(   89) = (   0.2500000   0.5292377   0.2352572), wk =   0.0416667
        k(   90) = (   0.2500000   0.5292377  -0.3136763), wk =   0.0208333
        k(   91) = (   0.3333333   0.5773503   0.0000000), wk =   0.0034722
        k(   92) = (   0.3333333   0.5773503   0.0784191), wk =   0.0069444
        k(   93) = (   0.3333333   0.5773503   0.1568381), wk =   0.0069444
        k(   94) = (   0.3333333   0.5773503   0.2352572), wk =   0.0069444
        k(   95) = (   0.3333333   0.5773503  -0.3136763), wk =   0.0034722

     Check: negative core charge=   -0.000035

     Initial potential from superposition of free atoms

     starting charge      21.9956, renormalised to      22.0000
     Starting wfcs are   20 randomized atomic wfcs
     Checking if some PAW data can be deallocated...

     Self-consistent Calculation

     iteration #  1     ecut=    70.00 Ry     beta= 0.70
     Davidson diagonalization with overlap
     ethr =  1.00E-02,  avg # of iterations =  2.2

     Threshold (ethr) on eigenvalues was too large:
     Diagonalizing with lowered threshold

     Davidson diagonalization with overlap
     c_bands:  3 eigenvalues not converged
     c_bands:  2 eigenvalues not converged
     c_bands:  2 eigenvalues not converged
     c_bands:  1 eigenvalues not converged
     c_bands:  1 eigenvalues not converged
     c_bands:  1 eigenvalues not converged
     c_bands:  2 eigenvalues not converged
     c_bands:  4 eigenvalues not converged
     c_bands:  1 eigenvalues not converged
     c_bands:  2 eigenvalues not converged
     c_bands:  5 eigenvalues not converged
     c_bands:  2 eigenvalues not converged
     c_bands:  2 eigenvalues not converged
     c_bands:  3 eigenvalues not converged
     c_bands:  4 eigenvalues not converged
     c_bands:  4 eigenvalues not converged
     c_bands:  1 eigenvalues not converged
     c_bands:  3 eigenvalues not converged
     c_bands:  2 eigenvalues not converged
     c_bands:  2 eigenvalues not converged
     c_bands:  1 eigenvalues not converged
     c_bands:  1 eigenvalues not converged
     c_bands:  4 eigenvalues not converged
     c_bands:  2 eigenvalues not converged
     c_bands:  1 eigenvalues not converged
     c_bands:  3 eigenvalues not converged
     c_bands:  2 eigenvalues not converged
     c_bands:  1 eigenvalues not converged
     c_bands:  2 eigenvalues not converged
     c_bands:  3 eigenvalues not converged
     c_bands:  1 eigenvalues not converged
     ethr =  1.57E-05,  avg # of iterations = 17.7

     total energy              =    -306.86620930 Ry
     estimated scf accuracy    <       0.02032943 Ry

[...]

     iteration #  3     ecut=    70.00 Ry     beta= 0.70
     Davidson diagonalization with overlap
     c_bands:  2 eigenvalues not converged
     c_bands:  1 eigenvalues not converged
[...]
     The core correction contribution to forces
     atom    1 type  1   force =     0.00000000   -0.00000000    0.00000000
     atom    2 type  1   force =     0.00000000   -0.00000000    0.00000000
     The Hubbard contrib.    to forces
     atom    1 type  1   force =     0.00000000    0.00000000    0.00000000
     atom    2 type  1   force =     0.00000000    0.00000000    0.00000000
     The SCF correction term to forces
     atom    1 type  1   force =    -0.00000000    0.00000000    0.00000000
     atom    2 type  1   force =     0.00000000   -0.00000000   -0.00000000

     Total force =     0.000000     Total SCF correction =     0.000000

     Computing stress (Cartesian axis) and pressure

          total   stress  (Ry/bohr**3)                   (kbar)     P=      -57.70
  -0.00035205  -0.00000000   0.00000000          -51.79       -0.00        0.00
  -0.00000000  -0.00035205  -0.00000000           -0.00      -51.79       -0.00
   0.00000000  -0.00000000  -0.00047259            0.00       -0.00      -69.52

     BFGS Geometry Optimization
     Energy error            =      0.0E+00 Ry
     Gradient error          =      1.6E-27 Ry/Bohr
     Cell gradient error     =      7.0E+01 kbar

     number of scf cycles    =   1
     number of bfgs steps    =   0

     enthalpy           new  =    -306.8724841852 Ry

     new trust radius        =       0.0434121238 bohr
     new conv_thr            =       0.0000000100 Ry

     new unit-cell volume =    327.69187 a.u.^3 (    48.55893 Ang^3 )
     density =      3.05004 g/cm^3

CELL_PARAMETERS (alat=  6.25310370)
   0.991198767  -0.000000000   0.000000000
  -0.495599383   0.858403312  -0.000000000
   0.000000000  -0.000000000   1.575167133

ATOMIC_POSITIONS (crystal)
Sc           -0.0000000000       -0.0000000000        0.0000000000
Sc            0.6666666667        0.3333333333        0.5000000000

     Writing config-only to output data dir sc_vcrelax.out/scandium.save/
     NEW-OLD atomic charge density approx. for the potential

     Check: negative core charge=   -0.000034
     extrapolated charge   21.33998, renormalised to   22.00000

[...]

          k =-0.0000 0.0000 0.0794 (  3363 PWs)   bands (ev):

[...]

     Energy error            =      3.5E-03 Ry
     Gradient error          =      5.4E-28 Ry/Bohr
     Cell gradient error     =      5.5E+01 kbar

[...]

     enthalpy           old  =    -306.8724841852 Ry
     enthalpy           new  =    -306.8759529043 Ry

     CASE: enthalpy          _new < enthalpy          _old

[...]

     number of scf cycles    =   8
     number of bfgs steps    =   7

     enthalpy           old  =    -306.8801672425 Ry
     enthalpy           new  =    -306.8801798346 Ry

     CASE: enthalpy          _new < enthalpy          _old

     new trust radius        =       0.0010673336 bohr
     new conv_thr            =            1.0E-10 Ry

     new unit-cell volume =    302.97899 a.u.^3 (    44.89685 Ang^3 )
     density =      3.29882 g/cm^3

[...]

ATOMIC_POSITIONS (crystal)
Sc           -0.0000000000       -0.0000000000        0.0000000000
Sc            0.6666666667        0.3333333333        0.5000000000

     Writing config-only to output data dir sc_vcrelax.out/scandium.save/
     NEW-OLD atomic charge density approx. for the potential

     Check: negative core charge=   -0.000027
     extrapolated charge   21.98821, renormalised to   22.00000

[...]

     Threshold (ethr) on eigenvalues was too large:
     Diagonalizing with lowered threshold

     Davidson diagonalization with overlap
     ethr =  2.81E-08,  avg # of iterations =  6.0

[...]

     Energy error            =      4.0E-07 Ry
     Gradient error          =      3.2E-27 Ry/Bohr
     Cell gradient error     =      1.7E-01 kbar

     bfgs converged in   9 scf cycles and   8 bfgs steps
     (criteria: energy <  1.0E-04 Ry, force <  1.0E-03 Ry/Bohr, cell <  5.0E-01 kbar)

     End of BFGS Geometry Optimization

     Final enthalpy           =    -306.8801802318 Ry

     File sc_vcrelax.out/scandium.bfgs deleted, as requested
Begin final coordinates
     new unit-cell volume =    302.97899 a.u.^3 (    44.89685 Ang^3 )
     density =      3.29882 g/cm^3

CELL_PARAMETERS (alat=  6.25310370)
   0.974478431  -0.000000000   0.000000000
  -0.487239216   0.843923077   0.000000000
   0.000000000   0.000000000   1.506782368

ATOMIC_POSITIONS (crystal)
Sc           -0.0000000000       -0.0000000000        0.0000000000
Sc            0.6666666667        0.3333333333        0.5000000000
End final coordinates

     Writing config-only to output data dir sc_vcrelax.out/scandium.save/

     Final scf calculation at the relaxed structure.
     The G-vectors are recalculated for the final unit cell
     Results may differ from those at the preceding step.

     Using Slab Decomposition

     bravais-lattice index     =            4
     lattice parameter (alat)  =       6.2531  a.u.
     unit-cell volume          =     302.9790 (a.u.)^3
     number of atoms/cell      =            2
     number of atomic types    =            1
     number of electrons       =        22.00
     number of Kohn-Sham states=           15
     kinetic-energy cutoff     =      70.0000  Ry
     charge density cutoff     =     280.0000  Ry
     scf convergence threshold =      1.0E-10
     mixing beta               =       0.7000
     number of iterations used =            8  plain     mixing
     press convergence thresh. =      5.0E-01
     Exchange-correlation= SLA  PZ   NOGX NOGC
                           (   1   1   0   0   0   0   0)

     celldm(1)=   6.253104  celldm(2)=   0.000000  celldm(3)=   1.594000
     celldm(4)=   0.000000  celldm(5)=   0.000000  celldm(6)=   0.000000

     crystal axes: (cart. coord. in units of alat)
               a(1) = (   0.974478  -0.000000   0.000000 )
               a(2) = (  -0.487239   0.843923   0.000000 )
               a(3) = (   0.000000   0.000000   1.506782 )

     reciprocal axes: (cart. coord. in units 2 pi/alat)
               b(1) = (  1.026190  0.592471 -0.000000 )
               b(2) = (  0.000000  1.184942 -0.000000 )
               b(3) = ( -0.000000 -0.000000  0.663666 )

     PseudoPot. # 1 for Sc read from file:
     ../../../Sc.pz-spn-kjpaw_psl.1.0.0.UPF
     MD5 check sum: 1f9095df0bb42a6568b4e9f256ff075f
     Pseudo is Projector augmented-wave + core cor, Zval = 11.0
     Generated using 'atomic' code by A. Dal Corso  v.7.1
     Shape of augmentation charge: PSQ
     Using radial grid of 1173 points,  6 beta functions with:
                l(1) =   0
                l(2) =   0
                l(3) =   1
                l(4) =   1
                l(5) =   2
                l(6) =   2
     Q(r) pseudized with 0 coefficients

     atomic species   valence    mass     pseudopotential
        Sc            11.00    44.59600     Sc( 1.00)

     24 Sym. Ops., with inversion, found (12 have fractional translation)

   Cartesian axes

     site n.     atom                  positions (alat units)
         1           Sc  tau(   1) = (  -0.0000000  -0.0000000  -0.0000000  )
         2           Sc  tau(   2) = (   0.4872392   0.2813077   0.7533912  )

     number of k points=    95  Marzari-Vanderbilt smearing, width (Ry)=  0.0200
                       cart. coord. in units 2pi/alat
        k(    1) = (   0.0000000   0.0000000   0.0000000), wk =   0.0017361
        k(    2) = (  -0.0000000  -0.0000000   0.0829582), wk =   0.0034722
        k(    3) = (  -0.0000000  -0.0000000   0.1659165), wk =   0.0034722
        k(    4) = (  -0.0000000  -0.0000000   0.2488747), wk =   0.0034722
        k(    5) = (   0.0000000   0.0000000  -0.3318329), wk =   0.0017361
        k(    6) = (   0.0000000   0.0987452  -0.0000000), wk =   0.0104167
        k(    7) = (   0.0000000   0.0987452   0.0829582), wk =   0.0208333
        k(    8) = (   0.0000000   0.0987452   0.1659165), wk =   0.0208333
        k(    9) = (   0.0000000   0.0987452   0.2488747), wk =   0.0208333
        k(   10) = (   0.0000000   0.0987452  -0.3318329), wk =   0.0104167
        k(   11) = (   0.0000000   0.1974904  -0.0000000), wk =   0.0104167
        k(   12) = (   0.0000000   0.1974904   0.0829582), wk =   0.0208333
        k(   13) = (   0.0000000   0.1974904   0.1659165), wk =   0.0208333
        k(   14) = (   0.0000000   0.1974904   0.2488747), wk =   0.0208333
        k(   15) = (   0.0000000   0.1974904  -0.3318329), wk =   0.0104167
        k(   16) = (   0.0000000   0.2962355  -0.0000000), wk =   0.0104167
        k(   17) = (   0.0000000   0.2962355   0.0829582), wk =   0.0208333
        k(   18) = (   0.0000000   0.2962355   0.1659165), wk =   0.0208333
        k(   19) = (   0.0000000   0.2962355   0.2488747), wk =   0.0208333
        k(   20) = (   0.0000000   0.2962355  -0.3318329), wk =   0.0104167
        k(   21) = (   0.0000000   0.3949807  -0.0000000), wk =   0.0104167
        k(   22) = (   0.0000000   0.3949807   0.0829582), wk =   0.0208333
        k(   23) = (   0.0000000   0.3949807   0.1659165), wk =   0.0208333
        k(   24) = (   0.0000000   0.3949807   0.2488747), wk =   0.0208333
        k(   25) = (   0.0000000   0.3949807  -0.3318329), wk =   0.0104167
        k(   26) = (   0.0000000   0.4937259  -0.0000000), wk =   0.0104167
        k(   27) = (   0.0000000   0.4937259   0.0829582), wk =   0.0208333
        k(   28) = (   0.0000000   0.4937259   0.1659165), wk =   0.0208333
        k(   29) = (   0.0000000   0.4937259   0.2488747), wk =   0.0208333
        k(   30) = (   0.0000000   0.4937259  -0.3318329), wk =   0.0104167
        k(   31) = (  -0.0000000  -0.5924711   0.0000000), wk =   0.0052083
        k(   32) = (  -0.0000000  -0.5924711   0.0829582), wk =   0.0104167
        k(   33) = (  -0.0000000  -0.5924711   0.1659165), wk =   0.0104167
        k(   34) = (  -0.0000000  -0.5924711   0.2488747), wk =   0.0104167
        k(   35) = (  -0.0000000  -0.5924711  -0.3318329), wk =   0.0052083
        k(   36) = (   0.0855158   0.1481178  -0.0000000), wk =   0.0104167
        k(   37) = (   0.0855158   0.1481178   0.0829582), wk =   0.0208333
        k(   38) = (   0.0855158   0.1481178   0.1659165), wk =   0.0208333
        k(   39) = (   0.0855158   0.1481178   0.2488747), wk =   0.0208333
        k(   40) = (   0.0855158   0.1481178  -0.3318329), wk =   0.0104167
        k(   41) = (   0.0855158   0.2468629  -0.0000000), wk =   0.0208333
        k(   42) = (   0.0855158   0.2468629   0.0829582), wk =   0.0416667
        k(   43) = (   0.0855158   0.2468629   0.1659165), wk =   0.0416667
        k(   44) = (   0.0855158   0.2468629   0.2488747), wk =   0.0416667
        k(   45) = (   0.0855158   0.2468629  -0.3318329), wk =   0.0208333
        k(   46) = (   0.0855158   0.3456081  -0.0000000), wk =   0.0208333
        k(   47) = (   0.0855158   0.3456081   0.0829582), wk =   0.0416667
        k(   48) = (   0.0855158   0.3456081   0.1659165), wk =   0.0416667
        k(   49) = (   0.0855158   0.3456081   0.2488747), wk =   0.0416667
        k(   50) = (   0.0855158   0.3456081  -0.3318329), wk =   0.0208333
        k(   51) = (   0.0855158   0.4443533  -0.0000000), wk =   0.0208333
        k(   52) = (   0.0855158   0.4443533   0.0829582), wk =   0.0416667
        k(   53) = (   0.0855158   0.4443533   0.1659165), wk =   0.0416667
        k(   54) = (   0.0855158   0.4443533   0.2488747), wk =   0.0416667
        k(   55) = (   0.0855158   0.4443533  -0.3318329), wk =   0.0208333
        k(   56) = (   0.0855158   0.5430985  -0.0000000), wk =   0.0208333
        k(   57) = (   0.0855158   0.5430985   0.0829582), wk =   0.0416667
        k(   58) = (   0.0855158   0.5430985   0.1659165), wk =   0.0416667
        k(   59) = (   0.0855158   0.5430985   0.2488747), wk =   0.0416667
        k(   60) = (   0.0855158   0.5430985  -0.3318329), wk =   0.0208333
[...]
        k(   81) = (   0.2565475   0.4443533  -0.0000000), wk =   0.0104167
        k(   82) = (   0.2565475   0.4443533   0.0829582), wk =   0.0208333
        k(   83) = (   0.2565475   0.4443533   0.1659165), wk =   0.0208333
        k(   84) = (   0.2565475   0.4443533   0.2488747), wk =   0.0208333
        k(   85) = (   0.2565475   0.4443533  -0.3318329), wk =   0.0104167
        k(   86) = (   0.2565475   0.5430985  -0.0000000), wk =   0.0208333
        k(   87) = (   0.2565475   0.5430985   0.0829582), wk =   0.0416667
        k(   88) = (   0.2565475   0.5430985   0.1659165), wk =   0.0416667
        k(   89) = (   0.2565475   0.5430985   0.2488747), wk =   0.0416667
        k(   90) = (   0.2565475   0.5430985  -0.3318329), wk =   0.0208333
        k(   91) = (   0.3420633   0.5924711  -0.0000000), wk =   0.0034722
        k(   92) = (   0.3420633   0.5924711   0.0829582), wk =   0.0069444
        k(   93) = (   0.3420633   0.5924711   0.1659165), wk =   0.0069444
        k(   94) = (   0.3420633   0.5924711   0.2488747), wk =   0.0069444
        k(   95) = (   0.3420633   0.5924711  -0.3318329), wk =   0.0034722

     Check: negative core charge=   -0.000037

     Initial potential from superposition of free atoms

     starting charge      21.9956, renormalised to      22.0000
     Starting wfcs are   20 randomized atomic wfcs
     Checking if some PAW data can be deallocated...

     Self-consistent Calculation

[...]

     iteration #  4     ecut=    70.00 Ry     beta= 0.70
     Davidson diagonalization with overlap
     c_bands:  1 eigenvalues not converged
     ethr =  1.31E-06,  avg # of iterations =  6.6

[...]

     total energy              =    -306.87959306 Ry
     estimated scf accuracy    <          2.3E-10 Ry

     iteration # 27     ecut=    70.00 Ry     beta= 0.70
     Davidson diagonalization with overlap
     ethr =  1.05E-12,  avg # of iterations =  4.3

     End of self-consistent calculation

[...]

          k =-0.0000-0.5925-0.3318 (  2988 PWs)   bands (ev):

[...]

          k = 0.3421 0.5925-0.3318 (  2982 PWs)   bands (ev):

   -38.5000 -38.5000 -17.6876 -17.6876 -17.5333 -17.5333 -17.2955 -17.2955
     9.6210   9.6210   9.8766   9.8766  10.4347  10.4347  12.6319

     the Fermi energy is    10.0681 ev

!    total energy              =    -306.87959306 Ry
     total all-electron energy =     -3050.020364 Ry
     estimated scf accuracy    <          2.0E-11 Ry
     smearing contrib. (-TS)   =      -0.00078135 Ry
     internal energy E=F+TS    =    -306.87881170 Ry

     The total energy is F=E-TS. E is the sum of the following terms:
     one-electron contribution =     -67.47696822 Ry
     hartree contribution      =      40.08604853 Ry
     xc contribution           =     -34.67356683 Ry
     ewald contribution        =    -131.05780352 Ry
     one-center paw contrib.   =    -113.75652166 Ry

     convergence has been achieved in  27 iterations

     Forces acting on atoms (cartesian axes, Ry/au):

     atom    1 type  1   force =     0.00000000    0.00000000   -0.00000000
     atom    2 type  1   force =    -0.00000000   -0.00000000    0.00000000
     The non-local contrib.  to forces
     atom    1 type  1   force =     0.00000000   -0.00000000    0.00000000
     atom    2 type  1   force =    -0.00000000    0.00000000   -0.00000000
     The ionic contribution  to forces
     atom    1 type  1   force =     0.00000000   -0.00000000   -0.00000000
     atom    2 type  1   force =    -0.00000000    0.00000000    0.00000000
     The local contribution  to forces
     atom    1 type  1   force =     0.00000000    0.00000000    0.00000000
     atom    2 type  1   force =    -0.00000000    0.00000000    0.00000000
     The core correction contribution to forces
     atom    1 type  1   force =     0.00000000   -0.00000000    0.00000000
     atom    2 type  1   force =     0.00000000   -0.00000000   -0.00000000
     The Hubbard contrib.    to forces
     atom    1 type  1   force =     0.00000000    0.00000000    0.00000000
     atom    2 type  1   force =     0.00000000    0.00000000    0.00000000
     The SCF correction term to forces
     atom    1 type  1   force =    -0.00000000    0.00000000   -0.00000000
     atom    2 type  1   force =     0.00000000    0.00000000   -0.00000000

     Total force =     0.000000     Total SCF correction =     0.000000

     Computing stress (Cartesian axis) and pressure

          total   stress  (Ry/bohr**3)                   (kbar)     P=       -2.00
  -0.00001249  -0.00000000   0.00000000           -1.84       -0.00        0.00
  -0.00000000  -0.00001249  -0.00000000           -0.00       -1.84       -0.00
   0.00000000   0.00000000  -0.00001572            0.00        0.00       -2.31

     Writing all to output data dir sc_vcrelax.out/scandium.save/

     General routines

     Parallel routines

   This run was terminated on:  17:38:10  16Jun2023

   JOB DONE.