     Program PWSCF v.7.2 starts on 21Jul2023 at 11: 0:33

     Waiting for input...
     Reading input from standard input

     Current dimensions of program PWSCF are:
     Max number of different atomic species (ntypx) = 10
     Max number of k-points (npk) = 120000
     Max angular momentum in pseudopotentials (lmaxx) =  4
     file Sc.pz-spn-kjpaw_psl.1.0.0.UPF: wavefunction(s)  3S 3P 3D renormalized

     K-points division:     npool     =       4
     R & G space division:  proc/nbgrp/npool/nimage =       5
     Subspace diagonalization in iterative solution of the eigenvalue problem:
     a serial algorithm will be used

     Using Slab Decomposition

     bravais-lattice index     =            4
     lattice parameter (alat)  =       6.2531  a.u.
     unit-cell volume          =     337.5249 (a.u.)^3
     number of atoms/cell      =            2
     number of atomic types    =            1
     number of electrons       =        22.00
     number of Kohn-Sham states=           15
     kinetic-energy cutoff     =      40.0000  Ry
     charge density cutoff     =     360.0000  Ry
     scf convergence threshold =      1.0E-08
     mixing beta               =       0.7000
     number of iterations used =            8  plain     mixing
     energy convergence thresh.=      1.0E-04
     force convergence thresh. =      1.0E-03
     press convergence thresh. =      5.0E-01
     Exchange-correlation= SLA  PZ   NOGX NOGC
                           (   1   1   0   0   0   0   0)
     nstep                     =           50

     celldm(1)=   6.253104  celldm(2)=   0.000000  celldm(3)=   1.594000
     celldm(4)=   0.000000  celldm(5)=   0.000000  celldm(6)=   0.000000

     crystal axes: (cart. coord. in units of alat)
               a(1) = (   1.000000   0.000000   0.000000 )
               a(2) = (  -0.500000   0.866025   0.000000 )
               a(3) = (   0.000000   0.000000   1.594000 )

     reciprocal axes: (cart. coord. in units 2 pi/alat)
               b(1) = (  1.000000  0.577350 -0.000000 )
               b(2) = (  0.000000  1.154701  0.000000 )
               b(3) = (  0.000000 -0.000000  0.627353 )

     PseudoPot. # 1 for Sc read from file:
     ../../../Sc.pz-spn-kjpaw_psl.1.0.0.UPF
     MD5 check sum: 1f9095df0bb42a6568b4e9f256ff075f
     Pseudo is Projector augmented-wave + core cor, Zval = 11.0
     Generated using 'atomic' code by A. Dal Corso  v.7.1
     Shape of augmentation charge: PSQ
     Using radial grid of 1173 points,  6 beta functions with:
                l(1) =   0
                l(2) =   0
                l(3) =   1
                l(4) =   1
                l(5) =   2
                l(6) =   2
     Q(r) pseudized with 0 coefficients

     atomic species   valence    mass     pseudopotential
        Sc            11.00    44.59600     Sc( 1.00)

     24 Sym. Ops., with inversion, found (12 have fractional translation)

   Cartesian axes

     site n.     atom                  positions (alat units)
         1           Sc  tau(   1) = (   0.0000000   0.0000000   0.0000000  )
         2           Sc  tau(   2) = (   0.5000000   0.2886751   0.7970000  )

     number of k points=    95  Marzari-Vanderbilt smearing, width (Ry)=  0.0200
                       cart. coord. in units 2pi/alat
        k(    1) = (   0.0000000   0.0000000   0.0000000), wk =   0.0017361
        k(    2) = (   0.0000000   0.0000000   0.0784191), wk =   0.0034722
        k(    3) = (   0.0000000   0.0000000   0.1568381), wk =   0.0034722
        k(    4) = (   0.0000000   0.0000000   0.2352572), wk =   0.0034722
        k(    5) = (   0.0000000   0.0000000  -0.3136763), wk =   0.0017361
        k(    6) = (   0.0000000   0.0962250   0.0000000), wk =   0.0104167
        k(    7) = (   0.0000000   0.0962250   0.0784191), wk =   0.0208333
        k(    8) = (   0.0000000   0.0962250   0.1568381), wk =   0.0208333
        k(    9) = (   0.0000000   0.0962250   0.2352572), wk =   0.0208333
        k(   10) = (   0.0000000   0.0962250  -0.3136763), wk =   0.0104167
        k(   11) = (   0.0000000   0.1924501   0.0000000), wk =   0.0104167
        k(   12) = (   0.0000000   0.1924501   0.0784191), wk =   0.0208333
        k(   13) = (   0.0000000   0.1924501   0.1568381), wk =   0.0208333
        k(   14) = (   0.0000000   0.1924501   0.2352572), wk =   0.0208333
        k(   15) = (   0.0000000   0.1924501  -0.3136763), wk =   0.0104167
        k(   16) = (   0.0000000   0.2886751   0.0000000), wk =   0.0104167
        k(   17) = (   0.0000000   0.2886751   0.0784191), wk =   0.0208333
        k(   18) = (   0.0000000   0.2886751   0.1568381), wk =   0.0208333
        k(   19) = (   0.0000000   0.2886751   0.2352572), wk =   0.0208333
        k(   20) = (   0.0000000   0.2886751  -0.3136763), wk =   0.0104167
        k(   21) = (   0.0000000   0.3849002   0.0000000), wk =   0.0104167
        k(   22) = (   0.0000000   0.3849002   0.0784191), wk =   0.0208333
        k(   23) = (   0.0000000   0.3849002   0.1568381), wk =   0.0208333
        k(   24) = (   0.0000000   0.3849002   0.2352572), wk =   0.0208333
        k(   25) = (   0.0000000   0.3849002  -0.3136763), wk =   0.0104167
        k(   26) = (   0.0000000   0.4811252   0.0000000), wk =   0.0104167
        k(   27) = (   0.0000000   0.4811252   0.0784191), wk =   0.0208333
        k(   28) = (   0.0000000   0.4811252   0.1568381), wk =   0.0208333
        k(   29) = (   0.0000000   0.4811252   0.2352572), wk =   0.0208333
        k(   30) = (   0.0000000   0.4811252  -0.3136763), wk =   0.0104167
        k(   31) = (   0.0000000  -0.5773503   0.0000000), wk =   0.0052083
        k(   32) = (   0.0000000  -0.5773503   0.0784191), wk =   0.0104167
        k(   33) = (   0.0000000  -0.5773503   0.1568381), wk =   0.0104167
        k(   34) = (   0.0000000  -0.5773503   0.2352572), wk =   0.0104167
        k(   35) = (   0.0000000  -0.5773503  -0.3136763), wk =   0.0052083
        k(   36) = (   0.0833333   0.1443376   0.0000000), wk =   0.0104167
        k(   37) = (   0.0833333   0.1443376   0.0784191), wk =   0.0208333
        k(   38) = (   0.0833333   0.1443376   0.1568381), wk =   0.0208333
        k(   39) = (   0.0833333   0.1443376   0.2352572), wk =   0.0208333
        k(   40) = (   0.0833333   0.1443376  -0.3136763), wk =   0.0104167
        k(   41) = (   0.0833333   0.2405626   0.0000000), wk =   0.0208333
        k(   42) = (   0.0833333   0.2405626   0.0784191), wk =   0.0416667
        k(   43) = (   0.0833333   0.2405626   0.1568381), wk =   0.0416667
        k(   44) = (   0.0833333   0.2405626   0.2352572), wk =   0.0416667
        k(   45) = (   0.0833333   0.2405626  -0.3136763), wk =   0.0208333
        k(   46) = (   0.0833333   0.3367877   0.0000000), wk =   0.0208333
        k(   47) = (   0.0833333   0.3367877   0.0784191), wk =   0.0416667
        k(   48) = (   0.0833333   0.3367877   0.1568381), wk =   0.0416667
        k(   49) = (   0.0833333   0.3367877   0.2352572), wk =   0.0416667
        k(   50) = (   0.0833333   0.3367877  -0.3136763), wk =   0.0208333
        k(   51) = (   0.0833333   0.4330127   0.0000000), wk =   0.0208333
        k(   52) = (   0.0833333   0.4330127   0.0784191), wk =   0.0416667
        k(   53) = (   0.0833333   0.4330127   0.1568381), wk =   0.0416667
        k(   54) = (   0.0833333   0.4330127   0.2352572), wk =   0.0416667
        k(   55) = (   0.0833333   0.4330127  -0.3136763), wk =   0.0208333
        k(   56) = (   0.0833333   0.5292377   0.0000000), wk =   0.0208333
        k(   57) = (   0.0833333   0.5292377   0.0784191), wk =   0.0416667
        k(   58) = (   0.0833333   0.5292377   0.1568381), wk =   0.0416667
        k(   59) = (   0.0833333   0.5292377   0.2352572), wk =   0.0416667
        k(   60) = (   0.0833333   0.5292377  -0.3136763), wk =   0.0208333
[...]
        k(   81) = (   0.2500000   0.4330127   0.0000000), wk =   0.0104167
        k(   82) = (   0.2500000   0.4330127   0.0784191), wk =   0.0208333
        k(   83) = (   0.2500000   0.4330127   0.1568381), wk =   0.0208333
        k(   84) = (   0.2500000   0.4330127   0.2352572), wk =   0.0208333
        k(   85) = (   0.2500000   0.4330127  -0.3136763), wk =   0.0104167
        k(   86) = (   0.2500000   0.5292377   0.0000000), wk =   0.0208333
        k(   87) = (   0.2500000   0.5292377   0.0784191), wk =   0.0416667
        k(   88) = (   0.2500000   0.5292377   0.1568381), wk =   0.0416667
        k(   89) = (   0.2500000   0.5292377   0.2352572), wk =   0.0416667
        k(   90) = (   0.2500000   0.5292377  -0.3136763), wk =   0.0208333
        k(   91) = (   0.3333333   0.5773503   0.0000000), wk =   0.0034722
        k(   92) = (   0.3333333   0.5773503   0.0784191), wk =   0.0069444
        k(   93) = (   0.3333333   0.5773503   0.1568381), wk =   0.0069444
        k(   94) = (   0.3333333   0.5773503   0.2352572), wk =   0.0069444
        k(   95) = (   0.3333333   0.5773503  -0.3136763), wk =   0.0034722

     Check: negative core charge=   -0.000008

     Initial potential from superposition of free atoms

     starting charge      21.9956, renormalised to      22.0000
     Starting wfcs are   20 randomized atomic wfcs
     Checking if some PAW data can be deallocated...

     Self-consistent Calculation

     iteration #  1     ecut=    40.00 Ry     beta= 0.70
     Davidson diagonalization with overlap
     ethr =  1.00E-02,  avg # of iterations =  3.2

     Threshold (ethr) on eigenvalues was too large:
     Diagonalizing with lowered threshold

     Davidson diagonalization with overlap
     ethr =  1.82E-05,  avg # of iterations =  9.1

     total energy              =    -306.85534696 Ry
     estimated scf accuracy    <       0.02203504 Ry

[...]

     End of self-consistent calculation

          k = 0.0000 0.0000 0.0000 (  1449 PWs)   bands (ev):

   -40.1584 -40.0943 -19.2374 -18.9042 -18.9042 -18.8457 -18.8457 -18.8285
     3.7526   7.1490   9.3043  10.3674  10.3674  10.4898  10.7832

[...]

     the Fermi energy is     8.8268 ev

!    total energy              =    -306.86203838 Ry
     total all-electron energy =     -3050.002809 Ry
     estimated scf accuracy    <          3.5E-10 Ry
     smearing contrib. (-TS)   =      -0.00103546 Ry
     internal energy E=F+TS    =    -306.86100292 Ry

     The total energy is F=E-TS. E is the sum of the following terms:
     one-electron contribution =     -74.36243910 Ry
     hartree contribution      =      42.25298046 Ry
     xc contribution           =     -34.52432342 Ry
     ewald contribution        =    -126.46581261 Ry
     one-center paw contrib.   =    -113.76140824 Ry

     convergence has been achieved in   6 iterations

     Forces acting on atoms (cartesian axes, Ry/au):

     atom    1 type  1   force =    -0.00000000    0.00000000    0.00000000
     atom    2 type  1   force =     0.00000000    0.00000000    0.00000000
     The non-local contrib.  to forces
     atom    1 type  1   force =    -0.00000000   -0.00000000    0.00000000
     atom    2 type  1   force =     0.00000000   -0.00000000    0.00000000
     The ionic contribution  to forces
[...]

     BFGS Geometry Optimization
     Energy error            =      0.0E+00 Ry
     Gradient error          =      1.6E-27 Ry/Bohr
     Cell gradient error     =      8.3E+01 kbar

     number of scf cycles    =   1
     number of bfgs steps    =   0

     enthalpy           new  =    -306.8620383801 Ry

     new trust radius        =       0.0520185557 bohr
     new conv_thr            =       0.0000000100 Ry

     new unit-cell volume =    325.41848 a.u.^3 (    48.22204 Ang^3 )
     density =      3.07135 g/cm^3

CELL_PARAMETERS (alat=  6.25310370)
   0.988927237  -0.000000000   0.000000000
  -0.494463619   0.856436110   0.000000000
   0.000000000   0.000000000   1.571433527

ATOMIC_POSITIONS (crystal)
Sc           -0.0000000000        0.0000000000        0.0000000000
Sc            0.6666666667        0.3333333333        0.5000000000

     Writing config-only to output data dir sc_vcrelax.out/scandium.save/
     NEW-OLD atomic charge density approx. for the potential

     Check: negative core charge=   -0.000010
     extrapolated charge   21.18170, renormalised to   22.00000

[...]

          k =-0.0000-0.5838 0.0000 (  1432 PWs)   bands (ev):

[...]

     Energy error            =      4.9E-03 Ry
     Gradient error          =      1.1E-27 Ry/Bohr
     Cell gradient error     =      5.9E+01 kbar

[...]

     enthalpy           old  =    -306.8620383801 Ry
     enthalpy           new  =    -306.8669809061 Ry

     CASE: enthalpy          _new < enthalpy          _old

[...]

     iteration #  1     ecut=    40.00 Ry     beta= 0.70
     Davidson diagonalization with overlap
     c_bands:  1 eigenvalues not converged
     c_bands:  1 eigenvalues not converged
     c_bands:  2 eigenvalues not converged
     c_bands:  1 eigenvalues not converged
     ethr =  1.00E-06,  avg # of iterations = 17.7

[...]

     Threshold (ethr) on eigenvalues was too large:
     Diagonalizing with lowered threshold

     Davidson diagonalization with overlap
     ethr =  1.51E-09,  avg # of iterations =  9.7

[...]

     number of scf cycles    =   7
     number of bfgs steps    =   6

     enthalpy           old  =    -306.8708131412 Ry
     enthalpy           new  =    -306.8708522017 Ry

     CASE: enthalpy          _new < enthalpy          _old

     new trust radius        =       0.0052797696 bohr
     new conv_thr            =            1.0E-10 Ry

     new unit-cell volume =    303.37896 a.u.^3 (    44.95612 Ang^3 )
     density =      3.29447 g/cm^3

[...]

ATOMIC_POSITIONS (crystal)
Sc            0.0000000000        0.0000000000        0.0000000000
Sc            0.6666666667        0.3333333333        0.5000000000

     Writing config-only to output data dir sc_vcrelax.out/scandium.save/
     NEW-OLD atomic charge density approx. for the potential

     Check: negative core charge=   -0.000012
     extrapolated charge   22.02017, renormalised to   22.00000

[...]

     Energy error            =      4.7E-06 Ry
     Gradient error          =      0.0E+00 Ry/Bohr
     Cell gradient error     =      1.2E-01 kbar

     bfgs converged in   8 scf cycles and   7 bfgs steps
     (criteria: energy <  1.0E-04 Ry, force <  1.0E-03 Ry/Bohr, cell <  5.0E-01 kbar)

     End of BFGS Geometry Optimization

     Final enthalpy           =    -306.8708568588 Ry

     File sc_vcrelax.out/scandium.bfgs deleted, as requested
Begin final coordinates
     new unit-cell volume =    303.37896 a.u.^3 (    44.95612 Ang^3 )
     density =      3.29447 g/cm^3

CELL_PARAMETERS (alat=  6.25310370)
   0.974283633  -0.000000000  -0.000000000
  -0.487141817   0.843754377   0.000000000
   0.000000000   0.000000000   1.509374868

ATOMIC_POSITIONS (crystal)
Sc            0.0000000000        0.0000000000        0.0000000000
Sc            0.6666666667        0.3333333333        0.5000000000
End final coordinates

     Writing config-only to output data dir sc_vcrelax.out/scandium.save/

     Final scf calculation at the relaxed structure.
     The G-vectors are recalculated for the final unit cell
     Results may differ from those at the preceding step.

     Using Slab Decomposition

     bravais-lattice index     =            4
     lattice parameter (alat)  =       6.2531  a.u.
     unit-cell volume          =     303.3790 (a.u.)^3
     number of atoms/cell      =            2
     number of atomic types    =            1
     number of electrons       =        22.00
     number of Kohn-Sham states=           15
     kinetic-energy cutoff     =      40.0000  Ry
     charge density cutoff     =     360.0000  Ry
     scf convergence threshold =      1.0E-10
     mixing beta               =       0.7000
     number of iterations used =            8  plain     mixing
     press convergence thresh. =      5.0E-01
     Exchange-correlation= SLA  PZ   NOGX NOGC
                           (   1   1   0   0   0   0   0)

     celldm(1)=   6.253104  celldm(2)=   0.000000  celldm(3)=   1.594000
     celldm(4)=   0.000000  celldm(5)=   0.000000  celldm(6)=   0.000000

     crystal axes: (cart. coord. in units of alat)
               a(1) = (   0.974284  -0.000000  -0.000000 )
               a(2) = (  -0.487142   0.843754   0.000000 )
               a(3) = (   0.000000   0.000000   1.509375 )

     reciprocal axes: (cart. coord. in units 2 pi/alat)
               b(1) = (  1.026395  0.592590 -0.000000 )
               b(2) = (  0.000000  1.185179 -0.000000 )
               b(3) = (  0.000000  0.000000  0.662526 )

     PseudoPot. # 1 for Sc read from file:
     ../../../Sc.pz-spn-kjpaw_psl.1.0.0.UPF
     MD5 check sum: 1f9095df0bb42a6568b4e9f256ff075f
     Pseudo is Projector augmented-wave + core cor, Zval = 11.0
     Generated using 'atomic' code by A. Dal Corso  v.7.1
     Shape of augmentation charge: PSQ
     Using radial grid of 1173 points,  6 beta functions with:
                l(1) =   0
                l(2) =   0
                l(3) =   1
                l(4) =   1
                l(5) =   2
                l(6) =   2
     Q(r) pseudized with 0 coefficients

     atomic species   valence    mass     pseudopotential
        Sc            11.00    44.59600     Sc( 1.00)

     24 Sym. Ops., with inversion, found (12 have fractional translation)

   Cartesian axes

     site n.     atom                  positions (alat units)
         1           Sc  tau(   1) = (   0.0000000   0.0000000  -0.0000000  )
         2           Sc  tau(   2) = (   0.4871418   0.2812515   0.7546874  )

     number of k points=    95  Marzari-Vanderbilt smearing, width (Ry)=  0.0200
                       cart. coord. in units 2pi/alat
        k(    1) = (   0.0000000   0.0000000   0.0000000), wk =   0.0017361
        k(    2) = (   0.0000000   0.0000000   0.0828157), wk =   0.0034722
        k(    3) = (   0.0000000   0.0000000   0.1656315), wk =   0.0034722
        k(    4) = (   0.0000000   0.0000000   0.2484472), wk =   0.0034722
        k(    5) = (  -0.0000000  -0.0000000  -0.3312630), wk =   0.0017361
        k(    6) = (   0.0000000   0.0987649  -0.0000000), wk =   0.0104167
        k(    7) = (   0.0000000   0.0987649   0.0828157), wk =   0.0208333
        k(    8) = (   0.0000000   0.0987649   0.1656315), wk =   0.0208333
        k(    9) = (   0.0000000   0.0987649   0.2484472), wk =   0.0208333
        k(   10) = (   0.0000000   0.0987649  -0.3312630), wk =   0.0104167
        k(   11) = (   0.0000000   0.1975298  -0.0000000), wk =   0.0104167
        k(   12) = (   0.0000000   0.1975298   0.0828157), wk =   0.0208333
        k(   13) = (   0.0000000   0.1975298   0.1656315), wk =   0.0208333
        k(   14) = (   0.0000000   0.1975298   0.2484472), wk =   0.0208333
        k(   15) = (   0.0000000   0.1975298  -0.3312630), wk =   0.0104167
        k(   16) = (   0.0000000   0.2962948  -0.0000000), wk =   0.0104167
        k(   17) = (   0.0000000   0.2962948   0.0828157), wk =   0.0208333
        k(   18) = (   0.0000000   0.2962948   0.1656315), wk =   0.0208333
        k(   19) = (   0.0000000   0.2962948   0.2484472), wk =   0.0208333
        k(   20) = (   0.0000000   0.2962948  -0.3312630), wk =   0.0104167
        k(   21) = (   0.0000000   0.3950597  -0.0000000), wk =   0.0104167
        k(   22) = (   0.0000000   0.3950597   0.0828157), wk =   0.0208333
        k(   23) = (   0.0000000   0.3950597   0.1656315), wk =   0.0208333
        k(   24) = (   0.0000000   0.3950597   0.2484472), wk =   0.0208333
        k(   25) = (   0.0000000   0.3950597  -0.3312630), wk =   0.0104167
        k(   26) = (   0.0000000   0.4938246  -0.0000000), wk =   0.0104167
        k(   27) = (   0.0000000   0.4938246   0.0828157), wk =   0.0208333
        k(   28) = (   0.0000000   0.4938246   0.1656315), wk =   0.0208333
        k(   29) = (   0.0000000   0.4938246   0.2484472), wk =   0.0208333
        k(   30) = (   0.0000000   0.4938246  -0.3312630), wk =   0.0104167
        k(   31) = (  -0.0000000  -0.5925895   0.0000000), wk =   0.0052083
        k(   32) = (  -0.0000000  -0.5925895   0.0828157), wk =   0.0104167
        k(   33) = (  -0.0000000  -0.5925895   0.1656315), wk =   0.0104167
        k(   34) = (  -0.0000000  -0.5925895   0.2484472), wk =   0.0104167
        k(   35) = (  -0.0000000  -0.5925895  -0.3312630), wk =   0.0052083
        k(   36) = (   0.0855329   0.1481474  -0.0000000), wk =   0.0104167
        k(   37) = (   0.0855329   0.1481474   0.0828157), wk =   0.0208333
        k(   38) = (   0.0855329   0.1481474   0.1656315), wk =   0.0208333
        k(   39) = (   0.0855329   0.1481474   0.2484472), wk =   0.0208333
        k(   40) = (   0.0855329   0.1481474  -0.3312630), wk =   0.0104167
        k(   41) = (   0.0855329   0.2469123  -0.0000000), wk =   0.0208333
        k(   42) = (   0.0855329   0.2469123   0.0828157), wk =   0.0416667
        k(   43) = (   0.0855329   0.2469123   0.1656315), wk =   0.0416667
        k(   44) = (   0.0855329   0.2469123   0.2484472), wk =   0.0416667
        k(   45) = (   0.0855329   0.2469123  -0.3312630), wk =   0.0208333
        k(   46) = (   0.0855329   0.3456772  -0.0000000), wk =   0.0208333
        k(   47) = (   0.0855329   0.3456772   0.0828157), wk =   0.0416667
        k(   48) = (   0.0855329   0.3456772   0.1656315), wk =   0.0416667
        k(   49) = (   0.0855329   0.3456772   0.2484472), wk =   0.0416667
        k(   50) = (   0.0855329   0.3456772  -0.3312630), wk =   0.0208333
        k(   51) = (   0.0855329   0.4444421  -0.0000000), wk =   0.0208333
        k(   52) = (   0.0855329   0.4444421   0.0828157), wk =   0.0416667
        k(   53) = (   0.0855329   0.4444421   0.1656315), wk =   0.0416667
        k(   54) = (   0.0855329   0.4444421   0.2484472), wk =   0.0416667
        k(   55) = (   0.0855329   0.4444421  -0.3312630), wk =   0.0208333
        k(   56) = (   0.0855329   0.5432071  -0.0000000), wk =   0.0208333
        k(   57) = (   0.0855329   0.5432071   0.0828157), wk =   0.0416667
        k(   58) = (   0.0855329   0.5432071   0.1656315), wk =   0.0416667
        k(   59) = (   0.0855329   0.5432071   0.2484472), wk =   0.0416667
        k(   60) = (   0.0855329   0.5432071  -0.3312630), wk =   0.0208333
[...]
        k(   81) = (   0.2565988   0.4444421  -0.0000000), wk =   0.0104167
        k(   82) = (   0.2565988   0.4444421   0.0828157), wk =   0.0208333
        k(   83) = (   0.2565988   0.4444421   0.1656315), wk =   0.0208333
        k(   84) = (   0.2565988   0.4444421   0.2484472), wk =   0.0208333
        k(   85) = (   0.2565988   0.4444421  -0.3312630), wk =   0.0104167
        k(   86) = (   0.2565988   0.5432071  -0.0000000), wk =   0.0208333
        k(   87) = (   0.2565988   0.5432071   0.0828157), wk =   0.0416667
        k(   88) = (   0.2565988   0.5432071   0.1656315), wk =   0.0416667
        k(   89) = (   0.2565988   0.5432071   0.2484472), wk =   0.0416667
        k(   90) = (   0.2565988   0.5432071  -0.3312630), wk =   0.0208333
        k(   91) = (   0.3421317   0.5925895  -0.0000000), wk =   0.0034722
        k(   92) = (   0.3421317   0.5925895   0.0828157), wk =   0.0069444
        k(   93) = (   0.3421317   0.5925895   0.1656315), wk =   0.0069444
        k(   94) = (   0.3421317   0.5925895   0.2484472), wk =   0.0069444
        k(   95) = (   0.3421317   0.5925895  -0.3312630), wk =   0.0034722

     Check: negative core charge=   -0.000008

     Initial potential from superposition of free atoms

     starting charge      21.9956, renormalised to      22.0000
     Starting wfcs are   20 randomized atomic wfcs
     Checking if some PAW data can be deallocated...

     Self-consistent Calculation

     iteration #  1     ecut=    40.00 Ry     beta= 0.70
     Davidson diagonalization with overlap
     c_bands:  2 eigenvalues not converged
     c_bands:  2 eigenvalues not converged
     c_bands:  1 eigenvalues not converged
     c_bands:  2 eigenvalues not converged
     c_bands:  3 eigenvalues not converged
     c_bands:  2 eigenvalues not converged
     c_bands:  2 eigenvalues not converged
     c_bands:  1 eigenvalues not converged
     c_bands:  2 eigenvalues not converged
     c_bands:  3 eigenvalues not converged
     c_bands:  2 eigenvalues not converged
     c_bands:  1 eigenvalues not converged
     c_bands:  1 eigenvalues not converged
     c_bands:  1 eigenvalues not converged
     c_bands:  1 eigenvalues not converged
     c_bands:  1 eigenvalues not converged
     c_bands:  1 eigenvalues not converged
     ethr =  1.00E-06,  avg # of iterations = 19.5

[...]

     total energy              =    -306.86880815 Ry
     estimated scf accuracy    <          5.0E-10 Ry

     iteration #  8     ecut=    40.00 Ry     beta= 0.70
     Davidson diagonalization with overlap
     ethr =  2.26E-12,  avg # of iterations =  5.5

     End of self-consistent calculation

[...]

          k =-0.0000-0.5926-0.3313 (  1300 PWs)   bands (ev):

[...]

          k = 0.3421 0.5926-0.3313 (  1308 PWs)   bands (ev):

   -38.5353 -38.5353 -17.7145 -17.7145 -17.5626 -17.5626 -17.3264 -17.3264
     9.6167   9.6167   9.8752   9.8752  10.4270  10.4270  12.6376

     the Fermi energy is    10.0665 ev

!    total energy              =    -306.86880815 Ry
     total all-electron energy =     -3050.009579 Ry
     estimated scf accuracy    <          8.4E-11 Ry
     smearing contrib. (-TS)   =      -0.00079135 Ry
     internal energy E=F+TS    =    -306.86801680 Ry

     The total energy is F=E-TS. E is the sum of the following terms:
     one-electron contribution =     -67.51874261 Ry
     hartree contribution      =      40.08393216 Ry
     xc contribution           =     -34.66896792 Ry
     ewald contribution        =    -131.00372628 Ry
     one-center paw contrib.   =    -113.76051216 Ry

     convergence has been achieved in   8 iterations

     Forces acting on atoms (cartesian axes, Ry/au):

     atom    1 type  1   force =    -0.00000000    0.00000000    0.00000000
     atom    2 type  1   force =     0.00000000    0.00000000   -0.00000000
     The non-local contrib.  to forces
     atom    1 type  1   force =     0.00000000    0.00000000    0.00000000
     atom    2 type  1   force =    -0.00000000    0.00000000    0.00000000
     The ionic contribution  to forces
     atom    1 type  1   force =     0.00000000   -0.00000000   -0.00000000
     atom    2 type  1   force =    -0.00000000    0.00000000    0.00000000
     The local contribution  to forces
     atom    1 type  1   force =     0.00000000    0.00000000    0.00000000
     atom    2 type  1   force =    -0.00000000    0.00000000    0.00000000
     The core correction contribution to forces
     atom    1 type  1   force =     0.00000000    0.00000000    0.00000000
     atom    2 type  1   force =     0.00000000   -0.00000000   -0.00000000
     The Hubbard contrib.    to forces
     atom    1 type  1   force =     0.00000000    0.00000000    0.00000000
     atom    2 type  1   force =     0.00000000    0.00000000    0.00000000
     The SCF correction term to forces
     atom    1 type  1   force =    -0.00000000    0.00000000   -0.00000000
     atom    2 type  1   force =    -0.00000000    0.00000000    0.00000000

     Total force =     0.000000     Total SCF correction =     0.000000

     Computing stress (Cartesian axis) and pressure

          total   stress  (Ry/bohr**3)                   (kbar)     P=      -16.63
  -0.00010760  -0.00000000  -0.00000000          -15.83       -0.00       -0.00
  -0.00000000  -0.00010760  -0.00000000           -0.00      -15.83       -0.00
   0.00000000   0.00000000  -0.00012397            0.00        0.00      -18.24

     Writing all to output data dir sc_vcrelax.out/scandium.save/

     General routines

     Parallel routines

   This run was terminated on:  12:21:36  21Jul2023

   JOB DONE.