     Program PWSCF v.7.2 starts on 16Jun2023 at 14:52: 8

     Waiting for input...
     Reading input from standard input

     Current dimensions of program PWSCF are:
     Max number of different atomic species (ntypx) = 10
     Max number of k-points (npk) = 120000
     Max angular momentum in pseudopotentials (lmaxx) =  4
     file Sc.pz-spn-kjpaw_psl.1.0.0.UPF: wavefunction(s)  3S 3P 3D renormalized

     Subspace diagonalization in iterative solution of the eigenvalue problem:
     a serial algorithm will be used

     Using Slab Decomposition

     bravais-lattice index     =            4
     lattice parameter (alat)  =       6.2531  a.u.
     unit-cell volume          =     337.5249 (a.u.)^3
     number of atoms/cell      =            2
     number of atomic types    =            1
     number of electrons       =        22.00
     number of Kohn-Sham states=           15
     kinetic-energy cutoff     =      50.0000  Ry
     charge density cutoff     =     200.0000  Ry
     scf convergence threshold =      1.0E-08
     mixing beta               =       0.7000
     number of iterations used =            8  plain     mixing
     energy convergence thresh.=      1.0E-04
     force convergence thresh. =      1.0E-03
     press convergence thresh. =      5.0E-01
     Exchange-correlation= SLA  PZ   NOGX NOGC
                           (   1   1   0   0   0   0   0)
     nstep                     =           50

     celldm(1)=   6.253104  celldm(2)=   0.000000  celldm(3)=   1.594000
     celldm(4)=   0.000000  celldm(5)=   0.000000  celldm(6)=   0.000000

     crystal axes: (cart. coord. in units of alat)
               a(1) = (   1.000000   0.000000   0.000000 )
               a(2) = (  -0.500000   0.866025   0.000000 )
               a(3) = (   0.000000   0.000000   1.594000 )

     reciprocal axes: (cart. coord. in units 2 pi/alat)
               b(1) = (  1.000000  0.577350 -0.000000 )
               b(2) = (  0.000000  1.154701  0.000000 )
               b(3) = (  0.000000 -0.000000  0.627353 )

     PseudoPot. # 1 for Sc read from file:
     ../../../Sc.pz-spn-kjpaw_psl.1.0.0.UPF
     MD5 check sum: 1f9095df0bb42a6568b4e9f256ff075f
     Pseudo is Projector augmented-wave + core cor, Zval = 11.0
     Generated using 'atomic' code by A. Dal Corso  v.7.1
     Shape of augmentation charge: PSQ
     Using radial grid of 1173 points,  6 beta functions with:
                l(1) =   0
                l(2) =   0
                l(3) =   1
                l(4) =   1
                l(5) =   2
                l(6) =   2
     Q(r) pseudized with 0 coefficients

     atomic species   valence    mass     pseudopotential
        Sc            11.00    44.59600     Sc( 1.00)

     24 Sym. Ops., with inversion, found (12 have fractional translation)

   Cartesian axes

     site n.     atom                  positions (alat units)
         1           Sc  tau(   1) = (   0.0000000   0.0000000   0.0000000  )
         2           Sc  tau(   2) = (   0.5000000   0.2886751   0.7970000  )

     number of k points=    95  Marzari-Vanderbilt smearing, width (Ry)=  0.0200
                       cart. coord. in units 2pi/alat
        k(    1) = (   0.0000000   0.0000000   0.0000000), wk =   0.0017361
        k(    2) = (   0.0000000   0.0000000   0.0784191), wk =   0.0034722
        k(    3) = (   0.0000000   0.0000000   0.1568381), wk =   0.0034722
        k(    4) = (   0.0000000   0.0000000   0.2352572), wk =   0.0034722
        k(    5) = (   0.0000000   0.0000000  -0.3136763), wk =   0.0017361
        k(    6) = (   0.0000000   0.0962250   0.0000000), wk =   0.0104167
        k(    7) = (   0.0000000   0.0962250   0.0784191), wk =   0.0208333
        k(    8) = (   0.0000000   0.0962250   0.1568381), wk =   0.0208333
        k(    9) = (   0.0000000   0.0962250   0.2352572), wk =   0.0208333
        k(   10) = (   0.0000000   0.0962250  -0.3136763), wk =   0.0104167
        k(   11) = (   0.0000000   0.1924501   0.0000000), wk =   0.0104167
        k(   12) = (   0.0000000   0.1924501   0.0784191), wk =   0.0208333
        k(   13) = (   0.0000000   0.1924501   0.1568381), wk =   0.0208333
        k(   14) = (   0.0000000   0.1924501   0.2352572), wk =   0.0208333
        k(   15) = (   0.0000000   0.1924501  -0.3136763), wk =   0.0104167
        k(   16) = (   0.0000000   0.2886751   0.0000000), wk =   0.0104167
        k(   17) = (   0.0000000   0.2886751   0.0784191), wk =   0.0208333
        k(   18) = (   0.0000000   0.2886751   0.1568381), wk =   0.0208333
        k(   19) = (   0.0000000   0.2886751   0.2352572), wk =   0.0208333
        k(   20) = (   0.0000000   0.2886751  -0.3136763), wk =   0.0104167
        k(   21) = (   0.0000000   0.3849002   0.0000000), wk =   0.0104167
        k(   22) = (   0.0000000   0.3849002   0.0784191), wk =   0.0208333
        k(   23) = (   0.0000000   0.3849002   0.1568381), wk =   0.0208333
        k(   24) = (   0.0000000   0.3849002   0.2352572), wk =   0.0208333
        k(   25) = (   0.0000000   0.3849002  -0.3136763), wk =   0.0104167
        k(   26) = (   0.0000000   0.4811252   0.0000000), wk =   0.0104167
        k(   27) = (   0.0000000   0.4811252   0.0784191), wk =   0.0208333
        k(   28) = (   0.0000000   0.4811252   0.1568381), wk =   0.0208333
        k(   29) = (   0.0000000   0.4811252   0.2352572), wk =   0.0208333
        k(   30) = (   0.0000000   0.4811252  -0.3136763), wk =   0.0104167
        k(   31) = (   0.0000000  -0.5773503   0.0000000), wk =   0.0052083
        k(   32) = (   0.0000000  -0.5773503   0.0784191), wk =   0.0104167
        k(   33) = (   0.0000000  -0.5773503   0.1568381), wk =   0.0104167
        k(   34) = (   0.0000000  -0.5773503   0.2352572), wk =   0.0104167
        k(   35) = (   0.0000000  -0.5773503  -0.3136763), wk =   0.0052083
        k(   36) = (   0.0833333   0.1443376   0.0000000), wk =   0.0104167
        k(   37) = (   0.0833333   0.1443376   0.0784191), wk =   0.0208333
        k(   38) = (   0.0833333   0.1443376   0.1568381), wk =   0.0208333
        k(   39) = (   0.0833333   0.1443376   0.2352572), wk =   0.0208333
        k(   40) = (   0.0833333   0.1443376  -0.3136763), wk =   0.0104167
        k(   41) = (   0.0833333   0.2405626   0.0000000), wk =   0.0208333
        k(   42) = (   0.0833333   0.2405626   0.0784191), wk =   0.0416667
        k(   43) = (   0.0833333   0.2405626   0.1568381), wk =   0.0416667
        k(   44) = (   0.0833333   0.2405626   0.2352572), wk =   0.0416667
        k(   45) = (   0.0833333   0.2405626  -0.3136763), wk =   0.0208333
        k(   46) = (   0.0833333   0.3367877   0.0000000), wk =   0.0208333
        k(   47) = (   0.0833333   0.3367877   0.0784191), wk =   0.0416667
        k(   48) = (   0.0833333   0.3367877   0.1568381), wk =   0.0416667
        k(   49) = (   0.0833333   0.3367877   0.2352572), wk =   0.0416667
        k(   50) = (   0.0833333   0.3367877  -0.3136763), wk =   0.0208333
        k(   51) = (   0.0833333   0.4330127   0.0000000), wk =   0.0208333
        k(   52) = (   0.0833333   0.4330127   0.0784191), wk =   0.0416667
        k(   53) = (   0.0833333   0.4330127   0.1568381), wk =   0.0416667
        k(   54) = (   0.0833333   0.4330127   0.2352572), wk =   0.0416667
        k(   55) = (   0.0833333   0.4330127  -0.3136763), wk =   0.0208333
        k(   56) = (   0.0833333   0.5292377   0.0000000), wk =   0.0208333
        k(   57) = (   0.0833333   0.5292377   0.0784191), wk =   0.0416667
        k(   58) = (   0.0833333   0.5292377   0.1568381), wk =   0.0416667
        k(   59) = (   0.0833333   0.5292377   0.2352572), wk =   0.0416667
        k(   60) = (   0.0833333   0.5292377  -0.3136763), wk =   0.0208333
[...]
        k(   81) = (   0.2500000   0.4330127   0.0000000), wk =   0.0104167
        k(   82) = (   0.2500000   0.4330127   0.0784191), wk =   0.0208333
        k(   83) = (   0.2500000   0.4330127   0.1568381), wk =   0.0208333
        k(   84) = (   0.2500000   0.4330127   0.2352572), wk =   0.0208333
        k(   85) = (   0.2500000   0.4330127  -0.3136763), wk =   0.0104167
        k(   86) = (   0.2500000   0.5292377   0.0000000), wk =   0.0208333
        k(   87) = (   0.2500000   0.5292377   0.0784191), wk =   0.0416667
        k(   88) = (   0.2500000   0.5292377   0.1568381), wk =   0.0416667
        k(   89) = (   0.2500000   0.5292377   0.2352572), wk =   0.0416667
        k(   90) = (   0.2500000   0.5292377  -0.3136763), wk =   0.0208333
        k(   91) = (   0.3333333   0.5773503   0.0000000), wk =   0.0034722
        k(   92) = (   0.3333333   0.5773503   0.0784191), wk =   0.0069444
        k(   93) = (   0.3333333   0.5773503   0.1568381), wk =   0.0069444
        k(   94) = (   0.3333333   0.5773503   0.2352572), wk =   0.0069444
        k(   95) = (   0.3333333   0.5773503  -0.3136763), wk =   0.0034722

     Check: negative core charge=   -0.000057

     Initial potential from superposition of free atoms

     starting charge      21.9956, renormalised to      22.0000
     Starting wfcs are   20 randomized atomic wfcs
     Checking if some PAW data can be deallocated...

     Self-consistent Calculation

     iteration #  1     ecut=    50.00 Ry     beta= 0.70
     Davidson diagonalization with overlap
     ethr =  1.00E-02,  avg # of iterations =  3.1

     Threshold (ethr) on eigenvalues was too large:
     Diagonalizing with lowered threshold

     Davidson diagonalization with overlap
     c_bands:  2 eigenvalues not converged
     c_bands:  1 eigenvalues not converged
     c_bands:  1 eigenvalues not converged
     c_bands:  3 eigenvalues not converged
     c_bands:  2 eigenvalues not converged
     c_bands:  1 eigenvalues not converged
     c_bands:  3 eigenvalues not converged
     c_bands:  2 eigenvalues not converged
     c_bands:  1 eigenvalues not converged
     c_bands:  3 eigenvalues not converged
     c_bands:  1 eigenvalues not converged
     c_bands:  2 eigenvalues not converged
     c_bands:  5 eigenvalues not converged
     c_bands:  2 eigenvalues not converged
     c_bands:  1 eigenvalues not converged
     ethr =  9.84E-06,  avg # of iterations = 15.9

     total energy              =    -306.85884752 Ry
     estimated scf accuracy    <       0.02114548 Ry

[...]

     iteration #  4     ecut=    50.00 Ry     beta= 0.70
     Davidson diagonalization with overlap
     c_bands:  1 eigenvalues not converged
     c_bands:  2 eigenvalues not converged
     ethr =  4.53E-07,  avg # of iterations =  9.8

[...]

     End of self-consistent calculation

          k = 0.0000 0.0000 0.0000 (  1997 PWs)   bands (ev):

   -40.1408 -40.0765 -19.2221 -18.8882 -18.8882 -18.8295 -18.8295 -18.8127
     3.7531   7.1493   9.3029  10.3612  10.3613  10.4714  10.7642

[...]

     the Fermi energy is     8.8249 ev

!    total energy              =    -306.86529643 Ry
     total all-electron energy =     -3050.006067 Ry
     estimated scf accuracy    <          5.8E-09 Ry
     smearing contrib. (-TS)   =      -0.00103896 Ry
     internal energy E=F+TS    =    -306.86425747 Ry

     The total energy is F=E-TS. E is the sum of the following terms:
[...]
     The core correction contribution to forces
     atom    1 type  1   force =    -0.00000000   -0.00000000    0.00000000
     atom    2 type  1   force =     0.00000000   -0.00000000    0.00000000
     The Hubbard contrib.    to forces
     atom    1 type  1   force =     0.00000000    0.00000000    0.00000000
     atom    2 type  1   force =     0.00000000    0.00000000    0.00000000
     The SCF correction term to forces
     atom    1 type  1   force =     0.00000000    0.00000000   -0.00000000
     atom    2 type  1   force =    -0.00000000    0.00000000   -0.00000000

     Total force =     0.000000     Total SCF correction =     0.000000

     Computing stress (Cartesian axis) and pressure

          total   stress  (Ry/bohr**3)                   (kbar)     P=      -56.65
  -0.00034539   0.00000000   0.00000000          -50.81        0.00        0.00
   0.00000000  -0.00034539   0.00000000            0.00      -50.81        0.00
   0.00000000  -0.00000000  -0.00046443            0.00       -0.00      -68.32

     BFGS Geometry Optimization
     Energy error            =      0.0E+00 Ry
     Gradient error          =      9.3E-28 Ry/Bohr
     Cell gradient error     =      6.8E+01 kbar

     number of scf cycles    =   1
     number of bfgs steps    =   0

     enthalpy           new  =    -306.8652964307 Ry

     new trust radius        =       0.0426626339 bohr
     new conv_thr            =       0.0000000100 Ry

     new unit-cell volume =    327.86968 a.u.^3 (    48.58527 Ang^3 )
     density =      3.04839 g/cm^3

CELL_PARAMETERS (alat=  6.25310370)
   0.991365331   0.000000000   0.000000000
  -0.495682665   0.858547561  -0.000000000
   0.000000000   0.000000000   1.575492274

ATOMIC_POSITIONS (crystal)
Sc            0.0000000000        0.0000000000        0.0000000000
Sc            0.6666666667        0.3333333333        0.5000000000

     Writing config-only to output data dir sc_vcrelax.out/scandium.save/
     NEW-OLD atomic charge density approx. for the potential

     Check: negative core charge=   -0.000048
     extrapolated charge   21.35226, renormalised to   22.00000

[...]

          k =-0.0000 0.0000 0.0793 (  1973 PWs)   bands (ev):

[...]

     Energy error            =      3.4E-03 Ry
     Gradient error          =      1.6E-27 Ry/Bohr
     Cell gradient error     =      5.6E+01 kbar

[...]

     enthalpy           old  =    -306.8652964307 Ry
     enthalpy           new  =    -306.8687066152 Ry

     CASE: enthalpy          _new < enthalpy          _old

[...]

     number of scf cycles    =   8
     number of bfgs steps    =   7

     enthalpy           old  =    -306.8735329628 Ry
     enthalpy           new  =    -306.8735528915 Ry

     CASE: enthalpy          _new < enthalpy          _old

     new trust radius        =       0.0019955021 bohr
     new conv_thr            =            1.0E-10 Ry

     new unit-cell volume =    300.57850 a.u.^3 (    44.54114 Ang^3 )
     density =      3.32517 g/cm^3

[...]

ATOMIC_POSITIONS (crystal)
Sc           -0.0000000000       -0.0000000000        0.0000000000
Sc            0.6666666667        0.3333333333        0.5000000000

     Writing config-only to output data dir sc_vcrelax.out/scandium.save/
     NEW-OLD atomic charge density approx. for the potential

     Check: negative core charge=   -0.000027
     extrapolated charge   21.98430, renormalised to   22.00000

[...]

     Threshold (ethr) on eigenvalues was too large:
     Diagonalizing with lowered threshold

     Davidson diagonalization with overlap
     ethr =  5.48E-08,  avg # of iterations =  5.9

[...]

     Energy error            =      6.4E-07 Ry
     Gradient error          =      1.7E-27 Ry/Bohr
     Cell gradient error     =      1.5E-01 kbar

     bfgs converged in   9 scf cycles and   8 bfgs steps
     (criteria: energy <  1.0E-04 Ry, force <  1.0E-03 Ry/Bohr, cell <  5.0E-01 kbar)

     End of BFGS Geometry Optimization

     Final enthalpy           =    -306.8735535316 Ry

     File sc_vcrelax.out/scandium.bfgs deleted, as requested
Begin final coordinates
     new unit-cell volume =    300.57850 a.u.^3 (    44.54114 Ang^3 )
     density =      3.32517 g/cm^3

CELL_PARAMETERS (alat=  6.25310370)
   0.972434378   0.000000000   0.000000000
  -0.486217189   0.842152874   0.000000000
  -0.000000000  -0.000000000   1.501135128

ATOMIC_POSITIONS (crystal)
Sc           -0.0000000000       -0.0000000000        0.0000000000
Sc            0.6666666667        0.3333333333        0.5000000000
End final coordinates

     Writing config-only to output data dir sc_vcrelax.out/scandium.save/

     Final scf calculation at the relaxed structure.
     The G-vectors are recalculated for the final unit cell
     Results may differ from those at the preceding step.

     Using Slab Decomposition

     bravais-lattice index     =            4
     lattice parameter (alat)  =       6.2531  a.u.
     unit-cell volume          =     300.5785 (a.u.)^3
     number of atoms/cell      =            2
     number of atomic types    =            1
     number of electrons       =        22.00
     number of Kohn-Sham states=           15
     kinetic-energy cutoff     =      50.0000  Ry
     charge density cutoff     =     200.0000  Ry
     scf convergence threshold =      1.0E-10
     mixing beta               =       0.7000
     number of iterations used =            8  plain     mixing
     press convergence thresh. =      5.0E-01
     Exchange-correlation= SLA  PZ   NOGX NOGC
                           (   1   1   0   0   0   0   0)

     celldm(1)=   6.253104  celldm(2)=   0.000000  celldm(3)=   1.594000
     celldm(4)=   0.000000  celldm(5)=   0.000000  celldm(6)=   0.000000

     crystal axes: (cart. coord. in units of alat)
               a(1) = (   0.972434   0.000000   0.000000 )
               a(2) = (  -0.486217   0.842153   0.000000 )
               a(3) = (  -0.000000  -0.000000   1.501135 )

     reciprocal axes: (cart. coord. in units 2 pi/alat)
               b(1) = (  1.028347  0.593716  0.000000 )
               b(2) = ( -0.000000  1.187433  0.000000 )
               b(3) = ( -0.000000 -0.000000  0.666163 )

     PseudoPot. # 1 for Sc read from file:
     ../../../Sc.pz-spn-kjpaw_psl.1.0.0.UPF
     MD5 check sum: 1f9095df0bb42a6568b4e9f256ff075f
     Pseudo is Projector augmented-wave + core cor, Zval = 11.0
     Generated using 'atomic' code by A. Dal Corso  v.7.1
     Shape of augmentation charge: PSQ
     Using radial grid of 1173 points,  6 beta functions with:
                l(1) =   0
                l(2) =   0
                l(3) =   1
                l(4) =   1
                l(5) =   2
                l(6) =   2
     Q(r) pseudized with 0 coefficients

     atomic species   valence    mass     pseudopotential
        Sc            11.00    44.59600     Sc( 1.00)

     24 Sym. Ops., with inversion, found (12 have fractional translation)

   Cartesian axes

     site n.     atom                  positions (alat units)
         1           Sc  tau(   1) = (  -0.0000000  -0.0000000  -0.0000000  )
         2           Sc  tau(   2) = (   0.4862172   0.2807176   0.7505676  )

     number of k points=    95  Marzari-Vanderbilt smearing, width (Ry)=  0.0200
                       cart. coord. in units 2pi/alat
        k(    1) = (   0.0000000   0.0000000   0.0000000), wk =   0.0017361
        k(    2) = (  -0.0000000  -0.0000000   0.0832703), wk =   0.0034722
        k(    3) = (  -0.0000000  -0.0000000   0.1665406), wk =   0.0034722
        k(    4) = (  -0.0000000  -0.0000000   0.2498110), wk =   0.0034722
        k(    5) = (   0.0000000   0.0000000  -0.3330813), wk =   0.0017361
        k(    6) = (  -0.0000000   0.0989527   0.0000000), wk =   0.0104167
        k(    7) = (  -0.0000000   0.0989527   0.0832703), wk =   0.0208333
        k(    8) = (  -0.0000000   0.0989527   0.1665406), wk =   0.0208333
        k(    9) = (  -0.0000000   0.0989527   0.2498110), wk =   0.0208333
        k(   10) = (  -0.0000000   0.0989527  -0.3330813), wk =   0.0104167
        k(   11) = (  -0.0000000   0.1979055   0.0000000), wk =   0.0104167
        k(   12) = (  -0.0000000   0.1979055   0.0832703), wk =   0.0208333
        k(   13) = (  -0.0000000   0.1979055   0.1665406), wk =   0.0208333
        k(   14) = (  -0.0000000   0.1979055   0.2498110), wk =   0.0208333
        k(   15) = (  -0.0000000   0.1979055  -0.3330813), wk =   0.0104167
        k(   16) = (  -0.0000000   0.2968582   0.0000000), wk =   0.0104167
        k(   17) = (  -0.0000000   0.2968582   0.0832703), wk =   0.0208333
        k(   18) = (  -0.0000000   0.2968582   0.1665406), wk =   0.0208333
        k(   19) = (  -0.0000000   0.2968582   0.2498110), wk =   0.0208333
        k(   20) = (  -0.0000000   0.2968582  -0.3330813), wk =   0.0104167
        k(   21) = (  -0.0000000   0.3958110   0.0000000), wk =   0.0104167
        k(   22) = (  -0.0000000   0.3958110   0.0832703), wk =   0.0208333
        k(   23) = (  -0.0000000   0.3958110   0.1665406), wk =   0.0208333
        k(   24) = (  -0.0000000   0.3958110   0.2498110), wk =   0.0208333
        k(   25) = (  -0.0000000   0.3958110  -0.3330813), wk =   0.0104167
        k(   26) = (  -0.0000000   0.4947637   0.0000000), wk =   0.0104167
        k(   27) = (  -0.0000000   0.4947637   0.0832703), wk =   0.0208333
        k(   28) = (  -0.0000000   0.4947637   0.1665406), wk =   0.0208333
        k(   29) = (  -0.0000000   0.4947637   0.2498110), wk =   0.0208333
        k(   30) = (  -0.0000000   0.4947637  -0.3330813), wk =   0.0104167
        k(   31) = (   0.0000000  -0.5937164  -0.0000000), wk =   0.0052083
        k(   32) = (   0.0000000  -0.5937164   0.0832703), wk =   0.0104167
        k(   33) = (   0.0000000  -0.5937164   0.1665406), wk =   0.0104167
        k(   34) = (   0.0000000  -0.5937164   0.2498110), wk =   0.0104167
        k(   35) = (   0.0000000  -0.5937164  -0.3330813), wk =   0.0052083
        k(   36) = (   0.0856956   0.1484291   0.0000000), wk =   0.0104167
        k(   37) = (   0.0856956   0.1484291   0.0832703), wk =   0.0208333
        k(   38) = (   0.0856956   0.1484291   0.1665406), wk =   0.0208333
        k(   39) = (   0.0856956   0.1484291   0.2498110), wk =   0.0208333
        k(   40) = (   0.0856956   0.1484291  -0.3330813), wk =   0.0104167
        k(   41) = (   0.0856956   0.2473818   0.0000000), wk =   0.0208333
        k(   42) = (   0.0856956   0.2473818   0.0832703), wk =   0.0416667
        k(   43) = (   0.0856956   0.2473818   0.1665406), wk =   0.0416667
        k(   44) = (   0.0856956   0.2473818   0.2498110), wk =   0.0416667
        k(   45) = (   0.0856956   0.2473818  -0.3330813), wk =   0.0208333
        k(   46) = (   0.0856956   0.3463346   0.0000000), wk =   0.0208333
        k(   47) = (   0.0856956   0.3463346   0.0832703), wk =   0.0416667
        k(   48) = (   0.0856956   0.3463346   0.1665406), wk =   0.0416667
        k(   49) = (   0.0856956   0.3463346   0.2498110), wk =   0.0416667
        k(   50) = (   0.0856956   0.3463346  -0.3330813), wk =   0.0208333
        k(   51) = (   0.0856956   0.4452873   0.0000000), wk =   0.0208333
        k(   52) = (   0.0856956   0.4452873   0.0832703), wk =   0.0416667
        k(   53) = (   0.0856956   0.4452873   0.1665406), wk =   0.0416667
        k(   54) = (   0.0856956   0.4452873   0.2498110), wk =   0.0416667
        k(   55) = (   0.0856956   0.4452873  -0.3330813), wk =   0.0208333
        k(   56) = (   0.0856956   0.5442401   0.0000000), wk =   0.0208333
        k(   57) = (   0.0856956   0.5442401   0.0832703), wk =   0.0416667
        k(   58) = (   0.0856956   0.5442401   0.1665406), wk =   0.0416667
        k(   59) = (   0.0856956   0.5442401   0.2498110), wk =   0.0416667
        k(   60) = (   0.0856956   0.5442401  -0.3330813), wk =   0.0208333
[...]
        k(   81) = (   0.2570868   0.4452873   0.0000000), wk =   0.0104167
        k(   82) = (   0.2570868   0.4452873   0.0832703), wk =   0.0208333
        k(   83) = (   0.2570868   0.4452873   0.1665406), wk =   0.0208333
        k(   84) = (   0.2570868   0.4452873   0.2498110), wk =   0.0208333
        k(   85) = (   0.2570868   0.4452873  -0.3330813), wk =   0.0104167
        k(   86) = (   0.2570868   0.5442401   0.0000000), wk =   0.0208333
        k(   87) = (   0.2570868   0.5442401   0.0832703), wk =   0.0416667
        k(   88) = (   0.2570868   0.5442401   0.1665406), wk =   0.0416667
        k(   89) = (   0.2570868   0.5442401   0.2498110), wk =   0.0416667
        k(   90) = (   0.2570868   0.5442401  -0.3330813), wk =   0.0208333
        k(   91) = (   0.3427823   0.5937164   0.0000000), wk =   0.0034722
        k(   92) = (   0.3427823   0.5937164   0.0832703), wk =   0.0069444
        k(   93) = (   0.3427823   0.5937164   0.1665406), wk =   0.0069444
        k(   94) = (   0.3427823   0.5937164   0.2498110), wk =   0.0069444
        k(   95) = (   0.3427823   0.5937164  -0.3330813), wk =   0.0034722

     Check: negative core charge=   -0.000063

     Initial potential from superposition of free atoms

     starting charge      21.9956, renormalised to      22.0000
     Starting wfcs are   20 randomized atomic wfcs
     Checking if some PAW data can be deallocated...

     Self-consistent Calculation

[...]

     iteration #  7     ecut=    50.00 Ry     beta= 0.70
     Davidson diagonalization with overlap
     c_bands:  1 eigenvalues not converged
     ethr =  1.60E-10,  avg # of iterations = 14.9

[...]

     total energy              =    -306.87189572 Ry
     estimated scf accuracy    <          9.4E-10 Ry

     iteration # 11     ecut=    50.00 Ry     beta= 0.70
     Davidson diagonalization with overlap
     ethr =  4.28E-12,  avg # of iterations =  4.4

     End of self-consistent calculation

[...]

          k =-0.0000 0.4948-0.3331 (  1798 PWs)   bands (ev):

[...]

          k = 0.3428 0.5937-0.3331 (  1830 PWs)   bands (ev):

   -38.3806 -38.3806 -17.5742 -17.5742 -17.4144 -17.4144 -17.1699 -17.1699
     9.7224   9.7224   9.9832   9.9832  10.5488  10.5488  12.7586

     the Fermi energy is    10.1757 ev

!    total energy              =    -306.87189572 Ry
     total all-electron energy =     -3050.012667 Ry
     estimated scf accuracy    <          2.1E-12 Ry
     smearing contrib. (-TS)   =      -0.00077301 Ry
     internal energy E=F+TS    =    -306.87112271 Ry

     The total energy is F=E-TS. E is the sum of the following terms:
     one-electron contribution =     -66.93947983 Ry
     hartree contribution      =      39.91803666 Ry
     xc contribution           =     -34.68673880 Ry
     ewald contribution        =    -131.40261159 Ry
     one-center paw contrib.   =    -113.76032915 Ry

     convergence has been achieved in  11 iterations

     Forces acting on atoms (cartesian axes, Ry/au):

     atom    1 type  1   force =     0.00000000    0.00000000    0.00000000
     atom    2 type  1   force =     0.00000000    0.00000000    0.00000000
     The non-local contrib.  to forces
     atom    1 type  1   force =    -0.00000000    0.00000000    0.00000000
     atom    2 type  1   force =    -0.00000000   -0.00000000   -0.00000000
     The ionic contribution  to forces
     atom    1 type  1   force =     0.00000000   -0.00000000    0.00000000
     atom    2 type  1   force =    -0.00000000    0.00000000   -0.00000000
     The local contribution  to forces
     atom    1 type  1   force =    -0.00000000    0.00000000    0.00000000
     atom    2 type  1   force =    -0.00000000    0.00000000   -0.00000000
     The core correction contribution to forces
     atom    1 type  1   force =     0.00000000   -0.00000000    0.00000000
     atom    2 type  1   force =     0.00000000   -0.00000000    0.00000000
     The Hubbard contrib.    to forces
     atom    1 type  1   force =     0.00000000    0.00000000    0.00000000
     atom    2 type  1   force =     0.00000000    0.00000000    0.00000000
     The SCF correction term to forces
     atom    1 type  1   force =    -0.00000000    0.00000000    0.00000000
     atom    2 type  1   force =     0.00000000    0.00000000    0.00000000

     Total force =     0.000000     Total SCF correction =     0.000000

     Computing stress (Cartesian axis) and pressure

          total   stress  (Ry/bohr**3)                   (kbar)     P=        3.61
   0.00002287  -0.00000000   0.00000000            3.36       -0.00        0.00
  -0.00000000   0.00002287  -0.00000000           -0.00        3.36       -0.00
  -0.00000000  -0.00000000   0.00002781           -0.00       -0.00        4.09

     Writing all to output data dir sc_vcrelax.out/scandium.save/

     General routines

     Parallel routines

   This run was terminated on:  15:28:34  16Jun2023

   JOB DONE.